 NEON1M11_0001.out
************************************************************************
**                                                                    **
**                                                                    **
**                         OpenRadioss Engine                         **
**                                                                    **
**            Non-linear Finite Element Analysis Software             **
**                                                                    **
**                                                                    **
**                                                                    **
**                  Windows 64 bits, Intel compiler                   **
**                      Double Precision Version                      **
**                                                                    **
**                                                                    **
** CommitID: d52fef0c60cb633c016845d8fa1f1a207c918826                 **
************************************************************************
** OpenRadioss Software                                               **
** COPYRIGHT (C) 1986-2024 Altair Engineering, Inc.                   **
** Licensed under GNU Affero General Public License.                  **
** See License file.                                                  **
************************************************************************
 
 NUMBER OF SPMD DOMAINS           1
 NUMBER OF THREADS PER DOMAIN     4
 NUMBER OF HMPP PROCESSES         4
  
 COMPUTATION HARDWARE DESCRIPTION
  
 HOSTNAME     CPU TYPE, FREQUENCY AND MEMORY
 shobhawindowvm   Intel(R) Xeon(R) CPU E5-2673 v4 @ 2.30GHz (x86_64), 2300 MHz,  12445 MB RAM,  19326 MB swap
  
************************************************************************


 NEON1M11D01NEON FE MODEL (NCAC V04i)                                            


 FINAL TIME . . . . . . . . . . . . . . . . . . .  0.8000000E-01

 TIME INTERVAL FOR TIME HISTORY PLOTS . . . . . .  0.5000000E-03

 TIME STEP SCALE FACTOR . . . . . . . . . . . . .  0.9000000    

 MINIMUM TIME STEP  . . . . . . . . . . . . . . .   0.000000    


 NODAL TIME STEP SCALE FACTOR,  . . . . . . . . .  0.6700000    
 NODAL MINIMUM TIME STEP. . . . . . . . . . . . .  0.5000000E-06
 MIN. TIME FLAG . . . . . . . . . . . . . . . . .     8
    1:STOP. . . . . . . . . . . . . . . . . . . . 
    3:INCREASE MASS, ORIGINAL FORMULATION . . . . 
    8:INCREASE MASS, IMPROVED FORMULATION . . . . 


 BRICK TIME STEP SCALE FACTOR . . . . . . . . . .  0.9000000    
 BRICK MINIMUM TIME STEP. . . . . . . . . . . . .  0.1000000E-06
 MIN. TIME STEP FLAG (1:STOP RUN, 2:DELETE BRICK)     3

 QUAD TIME STEP SCALE FACTOR. . . . . . . . . . .  0.9000000    
 QUAD MINIMUM TIME STEP . . . . . . . . . . . . .   0.000000    
 MIN. TIME STEP FLAG (1:STOP RUN, 2:DELETE QUAD).     0

 SHELL TIME STEP SCALE FACTOR . . . . . . . . . .  0.9000000    
 SHELL MINIMUM TIME STEP. . . . . . . . . . . . .   0.000000    
 MIN. TIME FLAG (1:STOP, 2:DELETE, 3:SMALL STRAIN)    0

 TRUSS TIME STEP SCALE FACTOR . . . . . . . . . .  0.9000000    
 TRUSS MINIMUM TIME STEP. . . . . . . . . . . . .   0.000000    
 MIN. TIME FLAG (1:STOP, 2:DELETE). . . . . . . .     0

 BEAM TIME STEP SCALE FACTOR. . . . . . . . . . .  0.9000000    
 BEAM MINIMUM TIME STEP . . . . . . . . . . . . .   0.000000    
 MIN. TIME FLAG (1:STOP, 2:DELETE). . . . . . . .     0

 SPRING TIME STEP SCALE FACTOR. . . . . . . . . .  0.9000000    
 SPRING MINIMUM TIME STEP . . . . . . . . . . . .   0.000000    
 MIN. TIME FLAG (1:STOP, 2:DELETE). . . . . . . .     0

 AIRBAG TIME STEP SCALE FACTOR. . . . . . . . . .  0.9000000    
 AIRBAG MINIMUM TIME STEP . . . . . . . . . . . .   0.000000    
 MIN. TIME FLAG (1:STOP). . . . . . . . . . . . .     0

 CONTACT TIME STEP SCALE FACTOR . . . . . . . . .  0.6700000    
 CONTACT MINIMUM TIME STEP. . . . . . . . . . . .  0.5000000E-06
 MIN. TIME FLAG(1:STOP, 2:REMOVE NODE FROM INTERF)    2

 PRINTOUT CYCLE FREQUENCY . . . . . . . . . . . .  -100

 RESTART CYCLE FREQUENCY. . . . . . . . . . . . .      50000

 MAXIMUM RESTART WRITE BEFORE OVERWRITE . . . . .     0

 INVERS: INPUT DECK VERSION . . . . . . . . . . .  2017
 ITTYP : FLAG FOR TYPE OF T-FILE. . . . . . . . .     4


 TIME FOR FIRST ANIMATION-FILE PLOT . . . . . . .   0.000000    
 TIME INTERVAL FOR ANIMATION-FILE PLOTS . . . . .  0.5000000E-02
 TIME TO STOP ANIMATION-FILE PLOTS. . . . . . . .  0.1000000E+21
 SENSOR FOR ANIMATION-FILE PLOTS. . . . . . . . .          0
 TIME INTERVAL FOR SENSOR ANIMATION-FILE PLOTS. .   0.000000    

 VARIABLE SAVED ON ANIMATION FILES (1: YES) :
      PLASTIC STRAIN. . . . . .     1
      DENSITY     (SOLID ONLY).     0
      SPECIFIC ENERGY . . . . .     1
      HOURGLASS ENERGY. . . . .     0
      TEMPERATURE (SOLID ONLY).     0
      THICKNESS   (SHELL ONLY).     0
      PRESSURE    (SOLID ONLY).     0
      VON MISES . . . . . . . .     1
      TURBULENT ENERGY (FLUID).     0
      TURBULENT VISCOSITY(FLUID)    0
      VORTICITY (FLUID) . . . .     0
 NODAL VALUES SAVED ON ANIMATION FILES (1: YES) :
      PRESSURE. . . . . . . . .     0
      DENSITY . . . . . . . . .     0
      TEMPERATURE . . . . . . .     0
 VECTOR SAVED ON ANIMATION FILES (1: YES) :
      VELOCITY VECTOR . . . . .     0
      DISPLACEMENT VECTOR . . .     0
      ACCELERATION VECTOR . . .     0
      CONTACT FORCES. . . . . .     0
      INTERNAL FORCES . . . . .     0
      EXTERNAL FORCES . . . . .     0
      SECTION RBY RWALL FORCES.     0
      ROTATIONAL VELOCITY VECTOR    0
      CONTACT PRESSURE (VECTORS)    0
 SHELL TENSOR SAVED ON ANIMATION FILES (1: YES) :
      MEMBRANE STRESS . . . . .     0
      BENDING STRESS(MOMENT/T^2)    0
      UPPER LAYER STRESS. . . .     0
      LOWER LAYER STRESS. . . .     0
      MEMBRANE STRAIN . . . . .     0
      CURVATURE . . . . . . . .     0
      UPPER LAYER STRAIN. . . .     0
      LOWER LAYER STRAIN. . . .     0
 NODAL MASS SAVED ON ANIMATION FILES (1: YES) :    1
 KEEP DELETED ELEMENT (1: YES) :    0


 INITIAL TIME STEP. . . . . . . . . . . . . . . .   0.000000    
 MAXIMUM TIME STEP. . . . . . . . . . . . . . . .  0.1000000E+31

 PARALLEL ARITHMETIC ON
 NUMBER OF INTERFACES TO BE ELIMINATED. . . . . .        0

 NUMBER OF SOLID  ELEMENT BLOCKS TO BE ELIMINATED        0

 NUMBER OF QUAD   ELEMENT BLOCKS TO BE ELIMINATED        0

 NUMBER OF SHELL  ELEMENT BLOCKS TO BE ELIMINATED        0

 NUMBER OF TRUSS  ELEMENT BLOCKS TO BE ELIMINATED        0

 NUMBER OF BEAM   ELEMENT BLOCKS TO BE ELIMINATED        0

 NUMBER OF SPRING ELEMENT BLOCKS TO BE ELIMINATED        0

 NUMBER OF SH_3N  ELEMENT BLOCKS TO BE ELIMINATED        0

 NUMBER OF  SPH PARTICLES BLOCKS TO BE ELIMINATED        0

 NUMBER OF RIGID LINKS. . . . . . . . . . . . . .        0

 NUMBER OF NEW BOUNDARY CONDITIONS. . . . . . . .        0



 VELOCITY REINITIALISATION

   FIRST-N    LAST-N   DIRECT.          VELOCITY
         1  11221631         1   1.230000000E+04
 10/07/2024
 **WARNING MINIMUM TIME STEP   0.3302E-06 IN INTERFACE         19(DTMIN=  0.5000E-06)
   DELETE SECONDARY NODE   11181538 FROM INTERFACE         19
   MAIN NODES :     343916  10030729  10030725  10030728
 **WARNING MINIMUM TIME STEP   0.3319E-06 IN INTERFACE         18(DTMIN=  0.5000E-06)
   DELETE SECONDARY NODE   11179874 FROM INTERFACE         18
   MAIN NODES :     337916  10007594  10007590  10007593
 **WARNING MINIMUM TIME STEP   0.3236E-06 IN INTERFACE         21(DTMIN=  0.5000E-06)
   DELETE SECONDARY NODE   10148144 FROM INTERFACE         21
   MAIN NODES :     376226  10106892  10106890  10106888
   CYCLE    TIME      TIME-STEP  ELEMENT          ERROR  I-ENERGY    K-ENERGY T  K-ENERGY R  EXT-WORK     MAS.ERR     TOTAL MASS  MASS ADDED
       0   0.000      0.5000E-06 NODE    11207898   0.0%   0.000      0.9277E+08   0.000       0.000      0.8093E-02   1.226      0.9845E-02
     ANIMATION FILE: NEON1M11A001 WRITTEN
     100  0.5000E-04  0.5000E-06 NODE    11134599   0.0%   1341.      0.9278E+08   166.8       0.000      0.8138E-02   1.226      0.9901E-02
     200  0.1000E-03  0.5000E-06 NODE    10107434   0.0%   1414.      0.9278E+08   175.2       0.000      0.8138E-02   1.226      0.9901E-02
     300  0.1500E-03  0.5000E-06 NODE      376366   0.0%   1425.      0.9278E+08   176.6       0.000      0.8138E-02   1.226      0.9901E-02
     400  0.2000E-03  0.5000E-06 NODE    10638320   0.0%   1435.      0.9278E+08   175.1       0.000      0.8138E-02   1.226      0.9901E-02
     500  0.2500E-03  0.5000E-06 NODE    10102875   0.0%   1441.      0.9278E+08   165.6       0.000      0.8138E-02   1.226      0.9901E-02
     600  0.3000E-03  0.5000E-06 NODE    10207369   0.0%   1434.      0.9278E+08   170.6       0.000      0.8138E-02   1.226      0.9901E-02
     700  0.3500E-03  0.5000E-06 NODE    11134368   0.0%   1434.      0.9278E+08   170.5       0.000      0.8138E-02   1.226      0.9901E-02
     800  0.4000E-03  0.5000E-06 NODE    10120464   0.0%   1582.      0.9278E+08   242.8      -225.9      0.8138E-02   1.226      0.9901E-02
     900  0.4500E-03  0.5000E-06 NODE    10639131   0.0%   2433.      0.9278E+08   327.9      -538.0      0.8138E-02   1.226      0.9901E-02
    1000  0.5000E-03  0.5000E-06 NODE    10116144   0.0%   4715.      0.9277E+08   1011.      -809.0      0.8138E-02   1.226      0.9901E-02
    1100  0.5500E-03  0.5000E-06 NODE    10645117   0.0%  0.1096E+05  0.9276E+08   1823.      -852.8      0.8138E-02   1.226      0.9901E-02
    1200  0.6000E-03  0.5000E-06 NODE    10148935   0.0%  0.1845E+05  0.9275E+08   1813.      -884.6      0.8138E-02   1.226      0.9901E-02
    1300  0.6500E-03  0.5000E-06 NODE    10115960  -0.0%  0.2667E+05  0.9274E+08   1626.      -921.0      0.8138E-02   1.226      0.9901E-02
    1400  0.7000E-03  0.5000E-06 NODE    10167763  -0.0%  0.3480E+05  0.9273E+08   1923.      -921.7      0.8138E-02   1.226      0.9901E-02
    1500  0.7500E-03  0.5000E-06 NODE    10167824  -0.0%  0.4323E+05  0.9272E+08   1906.      -926.4      0.8138E-02   1.226      0.9901E-02
    1600  0.8000E-03  0.5000E-06 NODE    10117923  -0.0%  0.5116E+05  0.9271E+08   1954.      -930.9      0.8138E-02   1.226      0.9901E-02
    1700  0.8500E-03  0.5000E-06 NODE    10108285  -0.0%  0.5870E+05  0.9270E+08   1969.      -933.0      0.8138E-02   1.226      0.9901E-02
    1800  0.9000E-03  0.5000E-06 NODE    10120448  -0.0%  0.6600E+05  0.9270E+08   1939.      -939.4      0.8138E-02   1.226      0.9901E-02
    1900  0.9500E-03  0.5000E-06 NODE    11185886  -0.0%  0.7371E+05  0.9269E+08   1949.      -942.5      0.8138E-02   1.226      0.9901E-02
    2000  0.1000E-02  0.5000E-06 NODE    10113068  -0.0%  0.8140E+05  0.9268E+08   2061.      -1005.      0.8138E-02   1.226      0.9901E-02
    2100  0.1050E-02  0.5000E-06 NODE    10397838  -0.0%  0.8953E+05  0.9267E+08   2015.      -1014.      0.8138E-02   1.226      0.9901E-02
    2200  0.1100E-02  0.5000E-06 NODE    10203463  -0.0%  0.9715E+05  0.9266E+08   1975.      -1047.      0.8138E-02   1.226      0.9901E-02
    2300  0.1150E-02  0.5000E-06 NODE    10778465  -0.0%  0.1049E+06  0.9265E+08   2095.      -1128.      0.8138E-02   1.226      0.9901E-02
    2400  0.1200E-02  0.5000E-06 NODE      382872  -0.0%  0.1137E+06  0.9264E+08   2272.      -1442.      0.8138E-02   1.226      0.9901E-02
    2500  0.1250E-02  0.5000E-06 NODE    10113597  -0.0%  0.1232E+06  0.9263E+08   2403.      -1580.      0.8138E-02   1.226      0.9901E-02
    2600  0.1300E-02  0.5000E-06 NODE      391890  -0.0%  0.1328E+06  0.9262E+08   2353.      -1630.      0.8138E-02   1.226      0.9901E-02
    2700  0.1350E-02  0.5000E-06 NODE    10114860  -0.0%  0.1424E+06  0.9261E+08   2291.      -1667.      0.8138E-02   1.226      0.9901E-02
    2800  0.1400E-02  0.5000E-06 NODE    11185786  -0.0%  0.1508E+06  0.9260E+08   2434.      -1694.      0.8138E-02   1.226      0.9901E-02
    2900  0.1450E-02  0.5000E-06 NODE    10398257  -0.0%  0.1586E+06  0.9259E+08   2602.      -1697.      0.8138E-02   1.226      0.9901E-02
    3000  0.1500E-02  0.5000E-06 NODE       26015  -0.0%  0.1667E+06  0.9258E+08   2706.      -1699.      0.8138E-02   1.226      0.9901E-02
    3100  0.1550E-02  0.5000E-06 NODE       26013  -0.0%  0.1750E+06  0.9257E+08   2831.      -1702.      0.8138E-02   1.226      0.9901E-02
    3200  0.1600E-02  0.5000E-06 NODE    10396265  -0.0%  0.1831E+06  0.9257E+08   2977.      -1708.      0.8138E-02   1.226      0.9901E-02
    3300  0.1650E-02  0.5000E-06 NODE    10114780  -0.0%  0.1910E+06  0.9256E+08   3212.      -1709.      0.8138E-02   1.226      0.9901E-02
    3400  0.1700E-02  0.5000E-06 NODE    10168094  -0.0%  0.1989E+06  0.9255E+08   3486.      -1711.      0.8138E-02   1.226      0.9901E-02
    3500  0.1750E-02  0.5000E-06 NODE    10778538  -0.0%  0.2074E+06  0.9254E+08   3691.      -1720.      0.8138E-02   1.226      0.9901E-02
    3600  0.1800E-02  0.5000E-06 NODE    10401210  -0.0%  0.2166E+06  0.9253E+08   3945.      -1730.      0.8138E-02   1.226      0.9901E-02
    3700  0.1850E-02  0.5000E-06 NODE    10206061  -0.0%  0.2264E+06  0.9252E+08   4239.      -1738.      0.8138E-02   1.226      0.9901E-02
    3800  0.1900E-02  0.5000E-06 NODE    10781123  -0.0%  0.2360E+06  0.9251E+08   4443.      -1748.      0.8138E-02   1.226      0.9901E-02
    3900  0.1950E-02  0.5000E-06 NODE       26607  -0.0%  0.2454E+06  0.9250E+08   4679.      -1767.      0.8138E-02   1.226      0.9901E-02
    4000  0.2000E-02  0.5000E-06 NODE    10114817  -0.0%  0.2545E+06  0.9249E+08   4880.      -1793.      0.8138E-02   1.226      0.9901E-02
    4100  0.2050E-02  0.5000E-06 NODE    10783017  -0.0%  0.2634E+06  0.9248E+08   4970.      -1797.      0.8138E-02   1.226      0.9901E-02
    4200  0.2100E-02  0.5000E-06 NODE    10138473  -0.0%  0.2720E+06  0.9247E+08   5026.      -1802.      0.8138E-02   1.226      0.9901E-02
 **WARNING MINIMUM TIME STEP   0.4562E-06 IN INTERFACE         13(DTMIN=  0.5000E-06)
   DELETE SECONDARY NODE     433964 FROM INTERFACE         13
   MAIN NODES :      27427  10402522  10402520  10402509
    4300  0.2150E-02  0.5000E-06 NODE    10117131  -0.0%  0.2814E+06  0.9246E+08   5241.      -1967.      0.8138E-02   1.226      0.9901E-02
 **WARNING MINIMUM TIME STEP   0.4767E-06 IN INTERFACE         14(DTMIN=  0.5000E-06)
   DELETE SECONDARY NODE     432220 FROM INTERFACE         14
   MAIN NODES :      26364  10397561  10397575  10397578
    4400  0.2200E-02  0.5000E-06 NODE    10110187  -0.0%  0.2921E+06  0.9245E+08   5634.      -2183.      0.8138E-02   1.226      0.9901E-02
    4500  0.2250E-02  0.5000E-06 NODE      147218  -0.0%  0.3040E+06  0.9243E+08   6230.      -2194.      0.8138E-02   1.226      0.9901E-02
    4600  0.2300E-02  0.5000E-06 NODE    11196686  -0.0%  0.3212E+06  0.9241E+08   6740.      -2211.      0.8138E-02   1.226      0.9901E-02
    4700  0.2350E-02  0.5000E-06 NODE    10193530  -0.0%  0.3375E+06  0.9240E+08   6949.      -2219.      0.8138E-02   1.226      0.9901E-02
    4800  0.2400E-02  0.5000E-06 NODE    10124005  -0.0%  0.3538E+06  0.9238E+08   7085.      -2232.      0.8138E-02   1.226      0.9901E-02
    4900  0.2450E-02  0.5000E-06 NODE    10778357  -0.0%  0.3718E+06  0.9236E+08   7631.      -2239.      0.8138E-02   1.226      0.9901E-02
    5000  0.2500E-02  0.5000E-06 NODE    10781242  -0.0%  0.3893E+06  0.9234E+08   8215.      -2239.      0.8138E-02   1.226      0.9901E-02
    5100  0.2550E-02  0.5000E-06 NODE       27584  -0.0%  0.4080E+06  0.9232E+08   8864.      -2243.      0.8138E-02   1.226      0.9901E-02
    5200  0.2600E-02  0.5000E-06 NODE      147306  -0.0%  0.4296E+06  0.9230E+08   9208.      -2250.      0.8138E-02   1.226      0.9901E-02
    5300  0.2650E-02  0.5000E-06 NODE    10403676  -0.0%  0.4524E+06  0.9227E+08   9545.      -2270.      0.8138E-02   1.226      0.9901E-02
    5400  0.2700E-02  0.5000E-06 NODE    10778258  -0.0%  0.4756E+06  0.9225E+08  0.1007E+05  -2273.      0.8138E-02   1.226      0.9901E-02
   CYCLE    TIME      TIME-STEP  ELEMENT          ERROR  I-ENERGY    K-ENERGY T  K-ENERGY R  EXT-WORK     MAS.ERR     TOTAL MASS  MASS ADDED
    5500  0.2750E-02  0.5000E-06 NODE    10778610  -0.0%  0.4983E+06  0.9222E+08  0.1032E+05  -2275.      0.8138E-02   1.226      0.9901E-02
    5600  0.2800E-02  0.5000E-06 NODE      377625  -0.0%  0.5194E+06  0.9220E+08  0.1039E+05  -2287.      0.8138E-02   1.226      0.9901E-02
    5700  0.2850E-02  0.5000E-06 NODE      158116  -0.0%  0.5394E+06  0.9218E+08  0.1067E+05  -2293.      0.8138E-02   1.226      0.9901E-02
    5800  0.2900E-02  0.5000E-06 NODE    10778357  -0.0%  0.5595E+06  0.9216E+08  0.1104E+05  -2320.      0.8138E-02   1.226      0.9901E-02
    5900  0.2950E-02  0.5000E-06 NODE    11111282  -0.0%  0.5799E+06  0.9214E+08  0.1130E+05  -2330.      0.8138E-02   1.226      0.9901E-02
    6000  0.3000E-02  0.5000E-06 NODE    10401229  -0.0%  0.5999E+06  0.9212E+08  0.1156E+05  -2331.      0.8138E-02   1.226      0.9901E-02
    6100  0.3050E-02  0.5000E-06 NODE    10128715  -0.0%  0.6186E+06  0.9210E+08  0.1204E+05  -2338.      0.8138E-02   1.226      0.9901E-02
    6200  0.3100E-02  0.5000E-06 NODE    10780987  -0.0%  0.6371E+06  0.9208E+08  0.1242E+05  -2344.      0.8139E-02   1.226      0.9901E-02
    6300  0.3150E-02  0.5000E-06 NODE    10401224  -0.0%  0.6557E+06  0.9206E+08  0.1255E+05  -2349.      0.8139E-02   1.226      0.9901E-02
    6400  0.3200E-02  0.5000E-06 NODE      270192  -0.0%  0.6739E+06  0.9204E+08  0.1274E+05  -2372.      0.8139E-02   1.226      0.9901E-02
    6500  0.3250E-02  0.5000E-06 NODE    10396271  -0.0%  0.6919E+06  0.9202E+08  0.1283E+05  -2374.      0.8139E-02   1.226      0.9901E-02
    6600  0.3300E-02  0.5000E-06 NODE     9904249  -0.0%  0.7106E+06  0.9200E+08  0.1309E+05  -2378.      0.8139E-02   1.226      0.9901E-02
    6700  0.3350E-02  0.5000E-06 NODE    10778357  -0.0%  0.7296E+06  0.9198E+08  0.1326E+05  -2380.      0.8139E-02   1.226      0.9901E-02
    6800  0.3400E-02  0.5000E-06 NODE    11196670  -0.0%  0.7479E+06  0.9197E+08  0.1341E+05  -2383.      0.8139E-02   1.226      0.9901E-02
    6900  0.3450E-02  0.5000E-06 NODE    10779899  -0.0%  0.7652E+06  0.9195E+08  0.1349E+05  -2397.      0.8139E-02   1.226      0.9902E-02
    7000  0.3500E-02  0.5000E-06 NODE       26015  -0.0%  0.7819E+06  0.9193E+08  0.1359E+05  -2401.      0.8139E-02   1.226      0.9902E-02
    7100  0.3550E-02  0.5000E-06 NODE    10779895  -0.0%  0.7979E+06  0.9191E+08  0.1400E+05  -2409.      0.8139E-02   1.226      0.9902E-02
 **WARNING MINIMUM TIME STEP   0.4887E-06 IN INTERFACE         13(DTMIN=  0.5000E-06)
   DELETE SECONDARY NODE     147009 FROM INTERFACE         13
   MAIN NODES :     153330  10799767  10799775  10799778
    7200  0.3600E-02  0.5000E-06 NODE     9904743  -0.0%  0.8135E+06  0.9190E+08  0.1404E+05  -2415.      0.8139E-02   1.226      0.9902E-02
    7300  0.3650E-02  0.5000E-06 NODE    11109584  -0.0%  0.8288E+06  0.9188E+08  0.1415E+05  -2419.      0.8139E-02   1.226      0.9902E-02
    7400  0.3700E-02  0.5000E-06 NODE      272702  -0.0%  0.8439E+06  0.9187E+08  0.1441E+05  -2419.      0.8139E-02   1.226      0.9902E-02
    7500  0.3750E-02  0.5000E-06 NODE    10168088  -0.0%  0.8586E+06  0.9185E+08  0.1454E+05  -2420.      0.8139E-02   1.226      0.9902E-02
    7600  0.3800E-02  0.5000E-06 NODE    10104540  -0.0%  0.8729E+06  0.9184E+08  0.1449E+05  -2423.      0.8139E-02   1.226      0.9902E-02
    7700  0.3850E-02  0.5000E-06 NODE    11108832  -0.0%  0.8869E+06  0.9182E+08  0.1439E+05  -2424.      0.8139E-02   1.226      0.9902E-02
    7800  0.3900E-02  0.5000E-06 NODE    10398734  -0.0%  0.9004E+06  0.9181E+08  0.1448E+05  -2426.      0.8140E-02   1.226      0.9902E-02
    7900  0.3950E-02  0.5000E-06 NODE    11111483  -0.0%  0.9137E+06  0.9180E+08  0.1446E+05  -2428.      0.8140E-02   1.226      0.9903E-02
    8000  0.4000E-02  0.5000E-06 NODE    10815338  -0.0%  0.9263E+06  0.9178E+08  0.1444E+05  -2431.      0.8140E-02   1.226      0.9903E-02
    8100  0.4050E-02  0.5000E-06 NODE    11196602  -0.0%  0.9380E+06  0.9177E+08  0.1456E+05  -2432.      0.8140E-02   1.226      0.9903E-02
    8200  0.4100E-02  0.5000E-06 NODE    11111353  -0.0%  0.9489E+06  0.9176E+08  0.1476E+05  -2436.      0.8140E-02   1.226      0.9903E-02
    8300  0.4150E-02  0.5000E-06 NODE    10403688  -0.0%  0.9592E+06  0.9175E+08  0.1505E+05  -2439.      0.8140E-02   1.226      0.9903E-02
    8400  0.4200E-02  0.5000E-06 NODE    10167893  -0.0%  0.9697E+06  0.9174E+08  0.1535E+05  -2451.      0.8140E-02   1.226      0.9903E-02
 **WARNING MINIMUM TIME STEP   0.4483E-06 IN INTERFACE         14(DTMIN=  0.5000E-06)
   DELETE SECONDARY NODE     150643 FROM INTERFACE         14
   MAIN NODES :     158153  10813002  10813000  10812998
 **WARNING MINIMUM TIME STEP   0.4481E-06 IN INTERFACE         14(DTMIN=  0.5000E-06)
   DELETE SECONDARY NODE     150643 FROM INTERFACE         14
   MAIN NODES :     158152  10812876  10813000  10813002
    8500  0.4250E-02  0.5000E-06 NODE      270223  -0.0%  0.9819E+06  0.9173E+08  0.1554E+05  -2456.      0.8140E-02   1.226      0.9903E-02
 **WARNING MINIMUM TIME STEP   0.4493E-06 IN INTERFACE         13(DTMIN=  0.5000E-06)
   DELETE SECONDARY NODE     149031 FROM INTERFACE         13
   MAIN NODES :     159257  10819168  10819165  10819167
    8600  0.4300E-02  0.5000E-06 NODE      381153  -0.1%  0.9950E+06  0.9171E+08  0.1560E+05  -2458.      0.8140E-02   1.226      0.9904E-02
    8700  0.4350E-02  0.5000E-06 NODE      386127  -0.1%  0.1009E+07  0.9170E+08  0.1573E+05  -2459.      0.8141E-02   1.226      0.9904E-02
    8800  0.4400E-02  0.5000E-06 NODE    10235110  -0.1%  0.1023E+07  0.9168E+08  0.1600E+05  -2461.      0.8141E-02   1.226      0.9904E-02
    8900  0.4450E-02  0.5000E-06 NODE    10114703  -0.1%  0.1038E+07  0.9167E+08  0.1621E+05  -2465.      0.8141E-02   1.226      0.9904E-02
    9000  0.4500E-02  0.5000E-06 NODE    10812881  -0.1%  0.1053E+07  0.9165E+08  0.1634E+05  -2467.      0.8141E-02   1.226      0.9904E-02
    9100  0.4550E-02  0.5000E-06 NODE    11187894  -0.1%  0.1070E+07  0.9164E+08  0.1671E+05  -2471.      0.8141E-02   1.226      0.9904E-02
    9200  0.4600E-02  0.5000E-06 NODE    10218314  -0.1%  0.1086E+07  0.9162E+08  0.1705E+05  -2477.      0.8141E-02   1.226      0.9905E-02
    9300  0.4650E-02  0.5000E-06 NODE      410233  -0.1%  0.1102E+07  0.9160E+08  0.1758E+05  -2482.      0.8142E-02   1.226      0.9905E-02
    9400  0.4700E-02  0.5000E-06 NODE    10404740  -0.1%  0.1119E+07  0.9159E+08  0.1792E+05  -2483.      0.8142E-02   1.226      0.9905E-02
    9500  0.4750E-02  0.5000E-06 NODE      270223  -0.1%  0.1138E+07  0.9157E+08  0.1823E+05  -2484.      0.8142E-02   1.226      0.9905E-02
    9600  0.4800E-02  0.5000E-06 NODE      148315  -0.1%  0.1157E+07  0.9155E+08  0.1858E+05  -2487.      0.8142E-02   1.226      0.9906E-02
    9700  0.4850E-02  0.5000E-06 NODE       26757  -0.1%  0.1176E+07  0.9153E+08  0.1903E+05  -2488.      0.8142E-02   1.226      0.9906E-02
    9800  0.4900E-02  0.5000E-06 NODE    10218341  -0.1%  0.1195E+07  0.9151E+08  0.1952E+05  -2489.      0.8143E-02   1.226      0.9906E-02
    9900  0.4950E-02  0.5000E-06 NODE    10778358  -0.1%  0.1214E+07  0.9149E+08  0.1993E+05  -2489.      0.8143E-02   1.226      0.9906E-02
   10000  0.5000E-02  0.5000E-06 NODE      270223  -0.1%  0.1234E+07  0.9147E+08  0.2001E+05  -2490.      0.8143E-02   1.226      0.9906E-02
     ANIMATION FILE: NEON1M11A002 WRITTEN
   10100  0.5050E-02  0.5000E-06 NODE    10781162  -0.1%  0.1255E+07  0.9145E+08  0.1996E+05  -2491.      0.8143E-02   1.226      0.9907E-02
   10200  0.5100E-02  0.5000E-06 NODE    10201245  -0.1%  0.1275E+07  0.9143E+08  0.2021E+05  -2492.      0.8143E-02   1.226      0.9907E-02
   10300  0.5150E-02  0.5000E-06 NODE    10196578  -0.1%  0.1295E+07  0.9141E+08  0.2062E+05  -2493.      0.8143E-02   1.226      0.9907E-02
   10400  0.5200E-02  0.5000E-06 NODE      270127  -0.1%  0.1314E+07  0.9139E+08  0.2116E+05  -2494.      0.8143E-02   1.226      0.9907E-02
   10500  0.5250E-02  0.5000E-06 NODE    10778597  -0.1%  0.1334E+07  0.9137E+08  0.2145E+05  -2495.      0.8144E-02   1.226      0.9907E-02
 **WARNING MINIMUM TIME STEP   0.4560E-06 IN INTERFACE         13(DTMIN=  0.5000E-06)
   DELETE SECONDARY NODE     153634 FROM INTERFACE         13
   MAIN NODES :     172100  10835629  10835625  10835628
   10600  0.5300E-02  0.5000E-06 NODE    10876663  -0.1%  0.1355E+07  0.9134E+08  0.2161E+05  -2495.      0.8144E-02   1.226      0.9908E-02
   10700  0.5350E-02  0.5000E-06 NODE    11185142  -0.1%  0.1376E+07  0.9132E+08  0.2168E+05  -2496.      0.8144E-02   1.226      0.9908E-02
   10800  0.5400E-02  0.5000E-06 NODE      237041  -0.1%  0.1397E+07  0.9130E+08  0.2177E+05  -2497.      0.8144E-02   1.226      0.9908E-02
   10900  0.5450E-02  0.5000E-06 NODE      191066  -0.1%  0.1419E+07  0.9128E+08  0.2189E+05  -2499.      0.8145E-02   1.226      0.9909E-02
 **WARNING MINIMUM TIME STEP   0.4024E-06 IN INTERFACE         14(DTMIN=  0.5000E-06)
   DELETE SECONDARY NODE     272745 FROM INTERFACE         14
   MAIN NODES :     183764  10856007  10856030  10856033
   CYCLE    TIME      TIME-STEP  ELEMENT          ERROR  I-ENERGY    K-ENERGY T  K-ENERGY R  EXT-WORK     MAS.ERR     TOTAL MASS  MASS ADDED
   11000  0.5500E-02  0.5000E-06 NODE    10399349  -0.1%  0.1440E+07  0.9126E+08  0.2195E+05  -2500.      0.8145E-02   1.226      0.9909E-02
   11100  0.5550E-02  0.5000E-06 NODE    10223728  -0.1%  0.1461E+07  0.9124E+08  0.2201E+05  -2505.      0.8145E-02   1.226      0.9909E-02
   11200  0.5600E-02  0.5000E-06 NODE    10786379  -0.1%  0.1482E+07  0.9122E+08  0.2206E+05  -2506.      0.8145E-02   1.226      0.9909E-02
   11300  0.5650E-02  0.5000E-06 NODE    10223728  -0.1%  0.1502E+07  0.9120E+08  0.2221E+05  -2507.      0.8145E-02   1.226      0.9909E-02
   11400  0.5700E-02  0.5000E-06 NODE    11111798  -0.1%  0.1521E+07  0.9118E+08  0.2256E+05  -2511.      0.8145E-02   1.226      0.9910E-02
   11500  0.5750E-02  0.5000E-06 NODE    10787811  -0.1%  0.1540E+07  0.9116E+08  0.2301E+05  -2511.      0.8146E-02   1.226      0.9910E-02
   11600  0.5800E-02  0.5000E-06 NODE    10399345  -0.1%  0.1560E+07  0.9114E+08  0.2330E+05  -2512.      0.8146E-02   1.226      0.9910E-02
   11700  0.5850E-02  0.5000E-06 NODE    10879930  -0.1%  0.1579E+07  0.9112E+08  0.2365E+05  -2513.      0.8146E-02   1.226      0.9911E-02
   11800  0.5900E-02  0.5000E-06 NODE      240112  -0.1%  0.1598E+07  0.9110E+08  0.2383E+05  -2514.      0.8147E-02   1.226      0.9911E-02
   11900  0.5950E-02  0.5000E-06 NODE    10786995  -0.1%  0.1618E+07  0.9108E+08  0.2393E+05  -2517.      0.8147E-02   1.226      0.9911E-02
   12000  0.6000E-02  0.5000E-06 NODE    10876125  -0.1%  0.1639E+07  0.9105E+08  0.2399E+05  -2518.      0.8147E-02   1.226      0.9911E-02
   12100  0.6050E-02  0.5000E-06 NODE    10784513  -0.1%  0.1660E+07  0.9103E+08  0.2399E+05  -2521.      0.8147E-02   1.226      0.9911E-02
   12200  0.6100E-02  0.5000E-06 NODE      158318  -0.1%  0.1681E+07  0.9101E+08  0.2405E+05  -2528.      0.8147E-02   1.226      0.9912E-02
   12300  0.6150E-02  0.5000E-06 NODE      401700  -0.1%  0.1701E+07  0.9099E+08  0.2425E+05  -2529.      0.8147E-02   1.226      0.9912E-02
   12400  0.6200E-02  0.5000E-06 NODE      391995  -0.1%  0.1722E+07  0.9097E+08  0.2456E+05  -2529.      0.8148E-02   1.226      0.9912E-02
   12500  0.6250E-02  0.5000E-06 NODE      272742  -0.1%  0.1743E+07  0.9095E+08  0.2478E+05  -2533.      0.8148E-02   1.226      0.9912E-02
   12600  0.6300E-02  0.5000E-06 NODE    10813038  -0.1%  0.1764E+07  0.9093E+08  0.2493E+05  -2534.      0.8148E-02   1.226      0.9912E-02
   12700  0.6350E-02  0.5000E-06 NODE    10876363  -0.1%  0.1784E+07  0.9091E+08  0.2535E+05  -2534.      0.8148E-02   1.226      0.9913E-02
   12800  0.6400E-02  0.5000E-06 NODE    10795332  -0.1%  0.1804E+07  0.9089E+08  0.2552E+05  -2535.      0.8148E-02   1.226      0.9913E-02
 **WARNING MINIMUM TIME STEP   0.2013E-06 IN INTERFACE          9(DTMIN=  0.5000E-06)
   DELETE SECONDARY NODE     312680 FROM INTERFACE          9
   MAIN NODES :     308888  11174037  11174040   9936422
   12900  0.6450E-02  0.5000E-06 NODE    11111436  -0.1%  0.1824E+07  0.9086E+08  0.2551E+05  -2536.      0.8148E-02   1.226      0.9913E-02
   13000  0.6500E-02  0.5000E-06 NODE    11107457  -0.1%  0.1844E+07  0.9084E+08  0.2556E+05  -2537.      0.8149E-02   1.226      0.9913E-02
   13100  0.6550E-02  0.5000E-06 NODE      192635  -0.1%  0.1865E+07  0.9082E+08  0.2568E+05  -2540.      0.8149E-02   1.226      0.9914E-02
   13200  0.6600E-02  0.5000E-06 NODE      272742  -0.1%  0.1885E+07  0.9080E+08  0.2588E+05  -2543.      0.8149E-02   1.226      0.9914E-02
   13300  0.6650E-02  0.5000E-06 NODE      158153  -0.1%  0.1905E+07  0.9078E+08  0.2612E+05  -2545.      0.8149E-02   1.226      0.9914E-02
   13400  0.6700E-02  0.5000E-06 NODE    10800122  -0.1%  0.1926E+07  0.9076E+08  0.2626E+05  -2546.      0.8149E-02   1.226      0.9914E-02
 **WARNING MINIMUM TIME STEP   0.4746E-06 IN INTERFACE         13(DTMIN=  0.5000E-06)
   DELETE SECONDARY NODE   10305328 FROM INTERFACE         13
   MAIN NODES :      27594  10403276  10403275  10403279
   13500  0.6750E-02  0.5000E-06 NODE      191661  -0.1%  0.1946E+07  0.9074E+08  0.2644E+05  -2549.      0.8150E-02   1.226      0.9915E-02
 **WARNING MINIMUM TIME STEP   0.2909E-06 IN INTERFACE          9(DTMIN=  0.5000E-06)
   DELETE SECONDARY NODE    9932723 FROM INTERFACE          9
   MAIN NODES :     308890   9936422  11174040  11174042
   13600  0.6800E-02  0.5000E-06 NODE    10877018  -0.1%  0.1967E+07  0.9072E+08  0.2651E+05  -2550.      0.8150E-02   1.226      0.9915E-02
   13700  0.6850E-02  0.5000E-06 NODE      153680  -0.1%  0.1987E+07  0.9070E+08  0.2671E+05  -2551.      0.8151E-02   1.226      0.9916E-02
 **WARNING MINIMUM TIME STEP   0.4499E-06 IN INTERFACE          9(DTMIN=  0.5000E-06)
   DELETE SECONDARY NODE     312629 FROM INTERFACE          9
   MAIN NODES :     308882  11173987  11174005   9936437
   13800  0.6900E-02  0.5000E-06 NODE    10486047  -0.1%  0.2008E+07  0.9068E+08  0.2689E+05  -2552.      0.8151E-02   1.226      0.9916E-02
 **WARNING MINIMUM TIME STEP   0.3447E-06 IN INTERFACE          9(DTMIN=  0.5000E-06)
   DELETE SECONDARY NODE    9932733 FROM INTERFACE          9
   MAIN NODES :     308892  11174062  11174075   9936412
 **WARNING MINIMUM TIME STEP   0.3416E-06 IN INTERFACE          9(DTMIN=  0.5000E-06)
   DELETE SECONDARY NODE     312682 FROM INTERFACE          9
   MAIN NODES :     308892   9936417  11174060  11174062
 **WARNING MINIMUM TIME STEP   0.4563E-06 IN INTERFACE          9(DTMIN=  0.5000E-06)
   DELETE SECONDARY NODE    9932558 FROM INTERFACE          9
   MAIN NODES :     308882  11173987  11174005   9936437
 **WARNING MINIMUM TIME STEP   0.3467E-06 IN INTERFACE          9(DTMIN=  0.5000E-06)
   DELETE SECONDARY NODE     312683 FROM INTERFACE          9
   MAIN NODES :     308894   9936412  11174075  11174077
   13900  0.6950E-02  0.5000E-06 NODE    10875521  -0.1%  0.2028E+07  0.9066E+08  0.2712E+05  -2553.      0.8151E-02   1.226      0.9916E-02
 **WARNING MINIMUM TIME STEP   0.4417E-06 IN INTERFACE          9(DTMIN=  0.5000E-06)
   DELETE SECONDARY NODE    9932553 FROM INTERFACE          9
   MAIN NODES :     308882   9936442  11173985  11173987
 **WARNING MINIMUM TIME STEP   0.4426E-06 IN INTERFACE          9(DTMIN=  0.5000E-06)
   DELETE SECONDARY NODE     312628 FROM INTERFACE          9
   MAIN NODES :     308882   9936442  11173985  11173987
 **WARNING MINIMUM TIME STEP   0.3304E-06 IN INTERFACE          9(DTMIN=  0.5000E-06)
   DELETE SECONDARY NODE    9932728 FROM INTERFACE          9
   MAIN NODES :     308890  11174042  11174060   9936417
   14000  0.7000E-02  0.5000E-06 NODE    10881308  -0.1%  0.2048E+07  0.9064E+08  0.2749E+05  -2554.      0.8151E-02   1.226      0.9917E-02
 **WARNING MINIMUM TIME STEP   0.3269E-06 IN INTERFACE          9(DTMIN=  0.5000E-06)
   DELETE SECONDARY NODE     312630 FROM INTERFACE          9
   MAIN NODES :     308884   9936437  11174005  11174007
 **WARNING MINIMUM TIME STEP   0.3483E-06 IN INTERFACE          9(DTMIN=  0.5000E-06)
   DELETE SECONDARY NODE    9932738 FROM INTERFACE          9
   MAIN NODES :     308894   9936412  11174075  11174077
   14100  0.7050E-02  0.5000E-06 NODE    10813038  -0.1%  0.2068E+07  0.9062E+08  0.2752E+05  -2557.      0.8152E-02   1.226      0.9917E-02
 **WARNING MINIMUM TIME STEP   0.3099E-06 IN INTERFACE          9(DTMIN=  0.5000E-06)
   DELETE SECONDARY NODE     312681 FROM INTERFACE          9
   MAIN NODES :     308890  11174042  11174060   9936417
   14200  0.7100E-02  0.5000E-06 NODE    11111799  -0.1%  0.2089E+07  0.9060E+08  0.2738E+05  -2558.      0.8152E-02   1.226      0.9917E-02
 **WARNING MINIMUM TIME STEP   0.3495E-06 IN INTERFACE          9(DTMIN=  0.5000E-06)
   DELETE SECONDARY NODE     312684 FROM INTERFACE          9
   MAIN NODES :     308894  11174077  11174090   9936407
   14300  0.7150E-02  0.5000E-06 NODE    10882221  -0.1%  0.2108E+07  0.9057E+08  0.2755E+05  -2559.      0.8152E-02   1.226      0.9917E-02
 **WARNING MINIMUM TIME STEP   0.3505E-06 IN INTERFACE          9(DTMIN=  0.5000E-06)
   DELETE SECONDARY NODE    9932743 FROM INTERFACE          9
   MAIN NODES :     308896   9936407  11174090  11173724
   14400  0.7200E-02  0.5000E-06 NODE      272742  -0.1%  0.2128E+07  0.9055E+08  0.2769E+05  -2559.      0.8152E-02   1.226      0.9918E-02
 **WARNING MINIMUM TIME STEP   0.3515E-06 IN INTERFACE          9(DTMIN=  0.5000E-06)
   DELETE SECONDARY NODE     312685 FROM INTERFACE          9
   MAIN NODES :     308896   9936407  11174090  11173724
   14500  0.7250E-02  0.5000E-06 NODE    10223728  -0.1%  0.2148E+07  0.9053E+08  0.2776E+05  -2561.      0.8152E-02   1.226      0.9918E-02
 **WARNING MINIMUM TIME STEP   0.3527E-06 IN INTERFACE          9(DTMIN=  0.5000E-06)
   DELETE SECONDARY NODE    9932748 FROM INTERFACE          9
   MAIN NODES :     308896  11173724  11173720   9936402
   14600  0.7300E-02  0.5000E-06 NODE    10795323  -0.1%  0.2168E+07  0.9051E+08  0.2772E+05  -2561.      0.8153E-02   1.226      0.9918E-02
 **WARNING MINIMUM TIME STEP   0.3323E-06 IN INTERFACE          9(DTMIN=  0.5000E-06)
   DELETE SECONDARY NODE     312686 FROM INTERFACE          9
   MAIN NODES :     308898   9936402  11173720  11173722
   14700  0.7350E-02  0.5000E-06 NODE    10795323  -0.1%  0.2188E+07  0.9049E+08  0.2780E+05  -2563.      0.8153E-02   1.226      0.9919E-02
 **WARNING MINIMUM TIME STEP   0.3103E-06 IN INTERFACE          9(DTMIN=  0.5000E-06)
   DELETE SECONDARY NODE    9932753 FROM INTERFACE          9
   MAIN NODES :     308898   9936402  11173720  11173722
   14800  0.7400E-02  0.5000E-06 NODE    10223722  -0.1%  0.2209E+07  0.9047E+08  0.2804E+05  -2564.      0.8153E-02   1.226      0.9919E-02
 **WARNING MINIMUM TIME STEP   0.3296E-06 IN INTERFACE          9(DTMIN=  0.5000E-06)
   DELETE SECONDARY NODE     312687 FROM INTERFACE          9
   MAIN NODES :     308898  11173722  11173740   9936397
   14900  0.7450E-02  0.5000E-06 NODE       52850  -0.1%  0.2229E+07  0.9045E+08  0.2830E+05  -2565.      0.8154E-02   1.226      0.9919E-02
 **WARNING MINIMUM TIME STEP   0.3522E-06 IN INTERFACE          9(DTMIN=  0.5000E-06)
   DELETE SECONDARY NODE    9932927 FROM INTERFACE          9
   MAIN NODES :     308391  11172463  11173740  11173722
 **WARNING MINIMUM TIME STEP   0.4383E-06 IN INTERFACE          9(DTMIN=  0.5000E-06)
   DELETE SECONDARY NODE    9932548 FROM INTERFACE          9
   MAIN NODES :     308880  11173972  11173985   9936442
   15000  0.7500E-02  0.5000E-06 NODE    10881304  -0.1%  0.2249E+07  0.9043E+08  0.2868E+05  -2566.      0.8154E-02   1.226      0.9920E-02
 **WARNING MINIMUM TIME STEP   0.3498E-06 IN INTERFACE          9(DTMIN=  0.5000E-06)
   DELETE SECONDARY NODE     312729 FROM INTERFACE          9
   MAIN NODES :     308391  11172362  11172460  11172463
   15100  0.7550E-02  0.5000E-06 NODE    10819170  -0.1%  0.2268E+07  0.9041E+08  0.2899E+05  -2567.      0.8154E-02   1.226      0.9920E-02
 **WARNING MINIMUM TIME STEP   0.4652E-06 IN INTERFACE          9(DTMIN=  0.5000E-06)
   DELETE SECONDARY NODE     311746 FROM INTERFACE          9
   MAIN NODES :     308532  11173673  11173670   9934648
 **WARNING MINIMUM TIME STEP   0.4557E-06 IN INTERFACE          9(DTMIN=  0.5000E-06)
   DELETE SECONDARY NODE    9930422 FROM INTERFACE          9
   MAIN NODES :     308532   9934643  11173690  11173673
   15200  0.7600E-02  0.5000E-06 NODE    10787285  -0.1%  0.2288E+07  0.9039E+08  0.2906E+05  -2568.      0.8155E-02   1.226      0.9921E-02
 **WARNING MINIMUM TIME STEP   0.4736E-06 IN INTERFACE          9(DTMIN=  0.5000E-06)
   DELETE SECONDARY NODE    9930417 FROM INTERFACE          9
   MAIN NODES :     308532  11173673  11173670   9934648
 **WARNING MINIMUM TIME STEP   0.4452E-06 IN INTERFACE          9(DTMIN=  0.5000E-06)
   DELETE SECONDARY NODE     311747 FROM INTERFACE          9
   MAIN NODES :     308532   9934643  11173690  11173673
 **WARNING MINIMUM TIME STEP   0.3471E-06 IN INTERFACE          9(DTMIN=  0.5000E-06)
   DELETE SECONDARY NODE    9932922 FROM INTERFACE          9
   MAIN NODES :     308391  11172362  11172460  11172463
 **WARNING MINIMUM TIME STEP   0.4342E-06 IN INTERFACE          9(DTMIN=  0.5000E-06)
   DELETE SECONDARY NODE    9930427 FROM INTERFACE          9
   MAIN NODES :     308533  11173693  11173690   9934643
   15300  0.7650E-02  0.5000E-06 NODE    10223722  -0.1%  0.2308E+07  0.9037E+08  0.2907E+05  -2569.      0.8155E-02   1.226      0.9921E-02
 **WARNING MINIMUM TIME STEP   0.4808E-06 IN INTERFACE          9(DTMIN=  0.5000E-06)
   DELETE SECONDARY NODE     311745 FROM INTERFACE          9
   MAIN NODES :     308531   9934648  11173670  11173668
 **WARNING MINIMUM TIME STEP   0.4228E-06 IN INTERFACE          9(DTMIN=  0.5000E-06)
   DELETE SECONDARY NODE     311727 FROM INTERFACE          9
   MAIN NODES :     308533  11173693  11173690   9934643
 **WARNING MINIMUM TIME STEP   0.4087E-06 IN INTERFACE          9(DTMIN=  0.5000E-06)
   DELETE SECONDARY NODE    9930357 FROM INTERFACE          9
   MAIN NODES :     308533   9934638  11173705  11173693
 **WARNING MINIMUM TIME STEP   0.2055E-06 IN INTERFACE          9(DTMIN=  0.5000E-06)
   DELETE SECONDARY NODE     311680 FROM INTERFACE          9
   MAIN NODES :     308914  11173847  11173855   9936357
 **WARNING MINIMUM TIME STEP   0.3944E-06 IN INTERFACE          9(DTMIN=  0.5000E-06)
   DELETE SECONDARY NODE     311728 FROM INTERFACE          9
   MAIN NODES :     308533   9934638  11173705  11173693
   15400  0.7700E-02  0.5000E-06 NODE      192067  -0.1%  0.2328E+07  0.9035E+08  0.2943E+05  -2571.      0.8155E-02   1.226      0.9922E-02
 **WARNING MINIMUM TIME STEP   0.3835E-06 IN INTERFACE          9(DTMIN=  0.5000E-06)
   DELETE SECONDARY NODE    9930362 FROM INTERFACE          9
   MAIN NODES :     308819  11173708  11173705   9934638
 **WARNING MINIMUM TIME STEP   0.3597E-06 IN INTERFACE          9(DTMIN=  0.5000E-06)
   DELETE SECONDARY NODE     312728 FROM INTERFACE          9
   MAIN NODES :     308390  11172453  11172460  11172362
 **WARNING MINIMUM TIME STEP   0.4870E-06 IN INTERFACE          9(DTMIN=  0.5000E-06)
   DELETE SECONDARY NODE    9930412 FROM INTERFACE          9
   MAIN NODES :     308531  11173668  11173665   9934653
   15500  0.7750E-02  0.5000E-06 NODE    10876128  -0.1%  0.2348E+07  0.9033E+08  0.2976E+05  -2572.      0.8156E-02   1.226      0.9922E-02
 **WARNING MINIMUM TIME STEP   0.3746E-06 IN INTERFACE          9(DTMIN=  0.5000E-06)
   DELETE SECONDARY NODE     311729 FROM INTERFACE          9
   MAIN NODES :     308819  11173708  11173705   9934638
 **WARNING MINIMUM TIME STEP   0.3033E-06 IN INTERFACE          9(DTMIN=  0.5000E-06)
   DELETE SECONDARY NODE    9930163 FROM INTERFACE          9
   MAIN NODES :     308914  11173847  11173855   9936357
   15600  0.7800E-02  0.5000E-06 NODE       52850  -0.1%  0.2368E+07  0.9031E+08  0.2999E+05  -2573.      0.8156E-02   1.226      0.9923E-02
 **WARNING MINIMUM TIME STEP   0.4939E-06 IN INTERFACE          9(DTMIN=  0.5000E-06)
   DELETE SECONDARY NODE     311744 FROM INTERFACE          9
   MAIN NODES :     308531  11173668  11173665   9934653
   15700  0.7850E-02  0.5000E-06 NODE      272109  -0.1%  0.2391E+07  0.9029E+08  0.3038E+05  -2575.      0.8156E-02   1.226      0.9923E-02
 **WARNING MINIMUM TIME STEP   0.3762E-06 IN INTERFACE          9(DTMIN=  0.5000E-06)
   DELETE SECONDARY NODE    9932917 FROM INTERFACE          9
   MAIN NODES :     308390  11172453  11172460  11172362
   15800  0.7900E-02  0.5000E-06 NODE    10114715  -0.1%  0.2414E+07  0.9026E+08  0.3070E+05  -2576.      0.8157E-02   1.227      0.9924E-02
 **WARNING MINIMUM TIME STEP   0.3327E-06 IN INTERFACE          9(DTMIN=  0.5000E-06)
   DELETE SECONDARY NODE     311681 FROM INTERFACE          9
   MAIN NODES :     308916   9936357  11173855  11173857
 **WARNING MINIMUM TIME STEP   0.3779E-06 IN INTERFACE          9(DTMIN=  0.5000E-06)
   DELETE SECONDARY NODE     311683 FROM INTERFACE          9
   MAIN NODES :     308918  11173877  11173880   9936347
 **WARNING MINIMUM TIME STEP   0.3708E-06 IN INTERFACE          9(DTMIN=  0.5000E-06)
   DELETE SECONDARY NODE    9930173 FROM INTERFACE          9
   MAIN NODES :     308918   9936352  11173875  11173877
 **WARNING MINIMUM TIME STEP   0.3589E-06 IN INTERFACE          9(DTMIN=  0.5000E-06)
   DELETE SECONDARY NODE    9930168 FROM INTERFACE          9
   MAIN NODES :     308916  11173857  11173875   9936352
 **WARNING MINIMUM TIME STEP   0.3691E-06 IN INTERFACE          9(DTMIN=  0.5000E-06)
   DELETE SECONDARY NODE     311682 FROM INTERFACE          9
   MAIN NODES :     308916  11173857  11173875   9936352
 **WARNING MINIMUM TIME STEP   0.3846E-06 IN INTERFACE          9(DTMIN=  0.5000E-06)
   DELETE SECONDARY NODE    9930178 FROM INTERFACE          9
   MAIN NODES :     308918  11173877  11173880   9936347
   15900  0.7950E-02  0.5000E-06 NODE    10783505  -0.1%  0.2438E+07  0.9024E+08  0.3059E+05  -2577.      0.8158E-02   1.227      0.9925E-02
 **WARNING MINIMUM TIME STEP   0.3881E-06 IN INTERFACE          9(DTMIN=  0.5000E-06)
   DELETE SECONDARY NODE     311684 FROM INTERFACE          9
   MAIN NODES :     308920   9936347  11173880  11173882
   16000  0.8000E-02  0.5000E-06 NODE    10880032  -0.1%  0.2463E+07  0.9021E+08  0.3051E+05  -2578.      0.8158E-02   1.227      0.9925E-02
 **WARNING MINIMUM TIME STEP   0.3910E-06 IN INTERFACE          9(DTMIN=  0.5000E-06)
   DELETE SECONDARY NODE     312727 FROM INTERFACE          9
   MAIN NODES :     308390  11172352  11172450  11172453
 **WARNING MINIMUM TIME STEP   0.3632E-06 IN INTERFACE          9(DTMIN=  0.5000E-06)
   DELETE SECONDARY NODE    9930367 FROM INTERFACE          9
   MAIN NODES :     308819   9934803  11173925  11173708
 **WARNING MINIMUM TIME STEP   0.3914E-06 IN INTERFACE          9(DTMIN=  0.5000E-06)
   DELETE SECONDARY NODE    9930183 FROM INTERFACE          9
   MAIN NODES :     308920  11173882  11173895   9936342
   16100  0.8050E-02  0.5000E-06 NODE    10218425  -0.1%  0.2487E+07  0.9019E+08  0.3079E+05  -2579.      0.8159E-02   1.227      0.9926E-02
   16200  0.8100E-02  0.5000E-06 NODE    10876135  -0.1%  0.2510E+07  0.9016E+08  0.3134E+05  -2580.      0.8159E-02   1.227      0.9927E-02
 **WARNING MINIMUM TIME STEP   0.3945E-06 IN INTERFACE          9(DTMIN=  0.5000E-06)
   DELETE SECONDARY NODE     311685 FROM INTERFACE          9
   MAIN NODES :     308920  11173882  11173895   9936342
 **WARNING MINIMUM TIME STEP   0.4030E-06 IN INTERFACE          9(DTMIN=  0.5000E-06)
   DELETE SECONDARY NODE    9932987 FROM INTERFACE          9
   MAIN NODES :     308389  11172443  11172450  11172352
   16300  0.8150E-02  0.5000E-06 NODE    11024035  -0.1%  0.2533E+07  0.9014E+08  0.3190E+05  -2581.      0.8160E-02   1.227      0.9927E-02
 **WARNING MINIMUM TIME STEP   0.3982E-06 IN INTERFACE          9(DTMIN=  0.5000E-06)
   DELETE SECONDARY NODE    9930188 FROM INTERFACE          9
   MAIN NODES :     308922   9936342  11173895  11173897
   16400  0.8200E-02  0.5000E-06 NODE      192017  -0.1%  0.2556E+07  0.9011E+08  0.3218E+05  -2581.      0.8161E-02   1.227      0.9928E-02
 **WARNING MINIMUM TIME STEP   0.3771E-06 IN INTERFACE          9(DTMIN=  0.5000E-06)
   DELETE SECONDARY NODE     311686 FROM INTERFACE          9
   MAIN NODES :     308922  11173897  11173925   9936337
   CYCLE    TIME      TIME-STEP  ELEMENT          ERROR  I-ENERGY    K-ENERGY T  K-ENERGY R  EXT-WORK     MAS.ERR     TOTAL MASS  MASS ADDED
   16500  0.8250E-02  0.5000E-06 NODE      149262  -0.1%  0.2579E+07  0.9009E+08  0.3230E+05  -2584.      0.8162E-02   1.227      0.9930E-02
 **WARNING MINIMUM TIME STEP   0.3539E-06 IN INTERFACE          9(DTMIN=  0.5000E-06)
   DELETE SECONDARY NODE    9930193 FROM INTERFACE          9
   MAIN NODES :     308924   9936337  11173925   9934803
   16600  0.8300E-02  0.5000E-06 NODE    11024035  -0.1%  0.2603E+07  0.9007E+08  0.3247E+05  -2586.      0.8163E-02   1.227      0.9931E-02
 **WARNING MINIMUM TIME STEP   0.3557E-06 IN INTERFACE          9(DTMIN=  0.5000E-06)
   DELETE SECONDARY NODE     311687 FROM INTERFACE          9
   MAIN NODES :     308924   9936337  11173925   9934803
   16700  0.8350E-02  0.5000E-06 NODE    11024035  -0.1%  0.2627E+07  0.9004E+08  0.3295E+05  -2586.      0.8165E-02   1.227      0.9933E-02
   16800  0.8400E-02  0.5000E-06 NODE    10784063  -0.1%  0.2652E+07  0.9002E+08  0.3326E+05  -2588.      0.8166E-02   1.227      0.9934E-02
   16900  0.8450E-02  0.5000E-06 NODE    10784063  -0.1%  0.2678E+07  0.8999E+08  0.3351E+05  -2590.      0.8167E-02   1.227      0.9936E-02
 **WARNING MINIMUM TIME STEP   0.4054E-06 IN INTERFACE          9(DTMIN=  0.5000E-06)
   DELETE SECONDARY NODE     156514 FROM INTERFACE          9
   MAIN NODES :     158758  10816357  10816355  10816318
   17000  0.8500E-02  0.5000E-06 NODE    10876127  -0.1%  0.2704E+07  0.8996E+08  0.3392E+05  -2592.      0.8168E-02   1.227      0.9937E-02
   17100  0.8550E-02  0.5000E-06 NODE    10784063  -0.1%  0.2732E+07  0.8993E+08  0.3401E+05  -2594.      0.8169E-02   1.227      0.9939E-02
 **WARNING MINIMUM TIME STEP   0.4377E-06 IN INTERFACE          9(DTMIN=  0.5000E-06)
   DELETE SECONDARY NODE    9932378 FROM INTERFACE          9
   MAIN NODES :     308250   9934849   9934845   9934848
   17200  0.8600E-02  0.5000E-06 NODE    10784068  -0.1%  0.2760E+07  0.8990E+08  0.3428E+05  -2599.      0.8170E-02   1.227      0.9939E-02
   17300  0.8650E-02  0.5000E-06 NODE    10876127  -0.1%  0.2788E+07  0.8988E+08  0.3451E+05  -2601.      0.8170E-02   1.227      0.9940E-02
   17400  0.8700E-02  0.5000E-06 NODE    10876127  -0.1%  0.2815E+07  0.8985E+08  0.3493E+05  -2603.      0.8171E-02   1.227      0.9941E-02
   17500  0.8750E-02  0.5000E-06 NODE    10876127  -0.1%  0.2842E+07  0.8982E+08  0.3551E+05  -2605.      0.8172E-02   1.227      0.9941E-02
   17600  0.8800E-02  0.5000E-06 NODE      158758  -0.1%  0.2871E+07  0.8979E+08  0.3617E+05  -2609.      0.8172E-02   1.227      0.9942E-02
 **WARNING MINIMUM TIME STEP   0.4228E-06 IN INTERFACE         14(DTMIN=  0.5000E-06)
   DELETE SECONDARY NODE     150233 FROM INTERFACE         14
   MAIN NODES :     157894  10810468  10810505  10810509
   17700  0.8850E-02  0.5000E-06 NODE    10876127  -0.1%  0.2901E+07  0.8976E+08  0.3666E+05  -2610.      0.8173E-02   1.227      0.9943E-02
   17800  0.8900E-02  0.5000E-06 NODE      158652  -0.1%  0.2931E+07  0.8973E+08  0.3701E+05  -2613.      0.8173E-02   1.227      0.9943E-02
   17900  0.8950E-02  0.5000E-06 NODE    10876127  -0.1%  0.2962E+07  0.8969E+08  0.3722E+05  -2615.      0.8173E-02   1.227      0.9943E-02
   18000  0.9000E-02  0.5000E-06 NODE    10813516  -0.1%  0.2993E+07  0.8966E+08  0.3755E+05  -2616.      0.8174E-02   1.227      0.9944E-02
   18100  0.9050E-02  0.5000E-06 NODE    10220973  -0.1%  0.3024E+07  0.8963E+08  0.3820E+05  -2617.      0.8174E-02   1.227      0.9945E-02
   18200  0.9100E-02  0.5000E-06 NODE    10813516  -0.1%  0.3055E+07  0.8960E+08  0.3888E+05  -2626.      0.8175E-02   1.227      0.9945E-02
   18300  0.9150E-02  0.5000E-06 NODE    11190666  -0.1%  0.3085E+07  0.8957E+08  0.3927E+05  -2645.      0.8176E-02   1.227      0.9946E-02
 **WARNING MINIMUM TIME STEP   0.3482E-06 IN INTERFACE          9(DTMIN=  0.5000E-06)
   DELETE SECONDARY NODE     312616 FROM INTERFACE          9
   MAIN NODES :     308876   9936457  11173940  11173942
   18400  0.9200E-02  0.5000E-06 NODE      191199  -0.1%  0.3116E+07  0.8953E+08  0.3955E+05  -2754.      0.8176E-02   1.227      0.9947E-02
   18500  0.9250E-02  0.5000E-06 NODE      191199  -0.1%  0.3147E+07  0.8950E+08  0.4021E+05  -2889.      0.8176E-02   1.227      0.9947E-02
   18600  0.9300E-02  0.5000E-06 NODE    10801315  -0.1%  0.3180E+07  0.8947E+08  0.4094E+05  -2941.      0.8177E-02   1.227      0.9948E-02
   18700  0.9350E-02  0.5000E-06 NODE      159458  -0.1%  0.3212E+07  0.8943E+08  0.4153E+05  -2989.      0.8178E-02   1.227      0.9949E-02
   18800  0.9400E-02  0.5000E-06 NODE    10787533  -0.1%  0.3246E+07  0.8940E+08  0.4184E+05  -3032.      0.8178E-02   1.227      0.9949E-02
 **WARNING MINIMUM TIME STEP   0.4453E-06 IN INTERFACE         14(DTMIN=  0.5000E-06)
   DELETE SECONDARY NODE     150100 FROM INTERFACE         14
   MAIN NODES :     144870  10767182  10767185  10767188
 **WARNING MINIMUM TIME STEP   0.4894E-06 IN INTERFACE          9(DTMIN=  0.5000E-06)
   DELETE SECONDARY NODE     312000 FROM INTERFACE          9
   MAIN NODES :     308527   9934668  11173615  11173603
 **WARNING MINIMUM TIME STEP   0.4904E-06 IN INTERFACE          9(DTMIN=  0.5000E-06)
   DELETE SECONDARY NODE    9931482 FROM INTERFACE          9
   MAIN NODES :     308528  11173618  11173615   9934668
 **WARNING MINIMUM TIME STEP   0.4900E-06 IN INTERFACE          9(DTMIN=  0.5000E-06)
   DELETE SECONDARY NODE     312001 FROM INTERFACE          9
   MAIN NODES :     308528  11173618  11173615   9934668
 **WARNING MINIMUM TIME STEP   0.4888E-06 IN INTERFACE          9(DTMIN=  0.5000E-06)
   DELETE SECONDARY NODE    9931477 FROM INTERFACE          9
   MAIN NODES :     308527   9934668  11173615  11173603
 **WARNING MINIMUM TIME STEP   0.4900E-06 IN INTERFACE          9(DTMIN=  0.5000E-06)
   DELETE SECONDARY NODE     312005 FROM INTERFACE          9
   MAIN NODES :     308527   9934668  11173615  11173603
 **WARNING MINIMUM TIME STEP   0.4911E-06 IN INTERFACE          9(DTMIN=  0.5000E-06)
   DELETE SECONDARY NODE    9931472 FROM INTERFACE          9
   MAIN NODES :     308527  11173603  11173600   9934673
 **WARNING MINIMUM TIME STEP   0.4895E-06 IN INTERFACE          9(DTMIN=  0.5000E-06)
   DELETE SECONDARY NODE    9931487 FROM INTERFACE          9
   MAIN NODES :     308528   9934663  11173635  11173618
   18900  0.9450E-02  0.5000E-06 NODE    10223728  -0.1%  0.3280E+07  0.8936E+08  0.4235E+05  -3086.      0.8179E-02   1.227      0.9950E-02
 **WARNING MINIMUM TIME STEP   0.4560E-06 IN INTERFACE         15(DTMIN=  0.5000E-06)
   DELETE SECONDARY NODE     237282 FROM INTERFACE         15
   MAIN NODES :     185117  10859117  10860275  10860278
   19000  0.9500E-02  0.5000E-06 NODE      413457  -0.1%  0.3314E+07  0.8932E+08  0.4273E+05  -3177.      0.8179E-02   1.227      0.9951E-02
 **WARNING MINIMUM TIME STEP   0.4653E-06 IN INTERFACE          9(DTMIN=  0.5000E-06)
   DELETE SECONDARY NODE    9932972 FROM INTERFACE          9
   MAIN NODES :     308388  11172332  11172425  11172428
 **WARNING MINIMUM TIME STEP   0.4831E-06 IN INTERFACE          9(DTMIN=  0.5000E-06)
   DELETE SECONDARY NODE    9932967 FROM INTERFACE          9
   MAIN NODES :     308387  11172423  11172425  11172332
 **WARNING MINIMUM TIME STEP   0.4738E-06 IN INTERFACE          9(DTMIN=  0.5000E-06)
   DELETE SECONDARY NODE     312744 FROM INTERFACE          9
   MAIN NODES :     308388  11172332  11172425  11172428
 **WARNING MINIMUM TIME STEP   0.4921E-06 IN INTERFACE          9(DTMIN=  0.5000E-06)
   DELETE SECONDARY NODE     312743 FROM INTERFACE          9
   MAIN NODES :     308387  11172423  11172425  11172332
 **WARNING MINIMUM TIME STEP   0.4571E-06 IN INTERFACE          9(DTMIN=  0.5000E-06)
   DELETE SECONDARY NODE     312745 FROM INTERFACE          9
   MAIN NODES :     308388  11172428  11172440  11172337
 **WARNING MINIMUM TIME STEP   0.4476E-06 IN INTERFACE          9(DTMIN=  0.5000E-06)
   DELETE SECONDARY NODE    9932977 FROM INTERFACE          9
   MAIN NODES :     308388  11172428  11172440  11172337
 **WARNING MINIMUM TIME STEP   0.4264E-06 IN INTERFACE          9(DTMIN=  0.5000E-06)
   DELETE SECONDARY NODE    9932982 FROM INTERFACE          9
   MAIN NODES :     308389  11172337  11172440  11172443
 **WARNING MINIMUM TIME STEP   0.4369E-06 IN INTERFACE          9(DTMIN=  0.5000E-06)
   DELETE SECONDARY NODE     312746 FROM INTERFACE          9
   MAIN NODES :     308389  11172337  11172440  11172443
 **WARNING MINIMUM TIME STEP   0.4147E-06 IN INTERFACE          9(DTMIN=  0.5000E-06)
   DELETE SECONDARY NODE     312747 FROM INTERFACE          9
   MAIN NODES :     308389  11172443  11172450  11172352
   19100  0.9550E-02  0.5000E-06 NODE    10244985  -0.1%  0.3349E+07  0.8929E+08  0.4330E+05  -3301.      0.8180E-02   1.227      0.9952E-02
 **WARNING MINIMUM TIME STEP   0.3876E-06 IN INTERFACE          9(DTMIN=  0.5000E-06)
   DELETE SECONDARY NODE     156521 FROM INTERFACE          9
   MAIN NODES :     158656  10815558  10815595  10813436
   19200  0.9600E-02  0.5000E-06 NODE    10223728  -0.1%  0.3385E+07  0.8925E+08  0.4386E+05  -3318.      0.8181E-02   1.227      0.9953E-02
   19300  0.9650E-02  0.5000E-06 NODE      159458  -0.1%  0.3421E+07  0.8921E+08  0.4430E+05  -3347.      0.8181E-02   1.227      0.9953E-02
   19400  0.9700E-02  0.5000E-06 NODE    10784569  -0.1%  0.3458E+07  0.8918E+08  0.4465E+05  -3389.      0.8182E-02   1.227      0.9954E-02
   19500  0.9750E-02  0.5000E-06 NODE    10241810  -0.1%  0.3495E+07  0.8914E+08  0.4511E+05  -3443.      0.8182E-02   1.227      0.9955E-02
   19600  0.9800E-02  0.5000E-06 NODE    10253272  -0.1%  0.3533E+07  0.8910E+08  0.4555E+05  -3584.      0.8183E-02   1.227      0.9955E-02
   19700  0.9850E-02  0.5000E-06 NODE    11024037  -0.1%  0.3570E+07  0.8906E+08  0.4577E+05  -3603.      0.8183E-02   1.227      0.9956E-02
   19800  0.9900E-02  0.5000E-06 NODE    10240233  -0.1%  0.3607E+07  0.8902E+08  0.4602E+05  -3629.      0.8184E-02   1.227      0.9956E-02
   19900  0.9950E-02  0.5000E-06 NODE    10812207  -0.1%  0.3643E+07  0.8898E+08  0.4655E+05  -3721.      0.8184E-02   1.227      0.9957E-02
   20000  0.1000E-01  0.5000E-06 NODE    11024037  -0.1%  0.3680E+07  0.8895E+08  0.4665E+05  -3732.      0.8185E-02   1.227      0.9958E-02
     ANIMATION FILE: NEON1M11A003 WRITTEN
   20100  0.1005E-01  0.5000E-06 NODE      413352  -0.1%  0.3716E+07  0.8891E+08  0.4673E+05  -3737.      0.8185E-02   1.227      0.9958E-02
   20200  0.1010E-01  0.5000E-06 NODE      417778  -0.1%  0.3752E+07  0.8887E+08  0.4716E+05  -3774.      0.8186E-02   1.227      0.9958E-02
   20300  0.1015E-01  0.5000E-06 NODE      191203  -0.1%  0.3787E+07  0.8883E+08  0.4787E+05  -3811.      0.8187E-02   1.227      0.9960E-02
 **WARNING MINIMUM TIME STEP   0.3969E-06 IN INTERFACE          9(DTMIN=  0.5000E-06)
   DELETE SECONDARY NODE     311557 FROM INTERFACE          9
   MAIN NODES :     308390  11172352  11172450  11172453
 **WARNING MINIMUM TIME STEP   0.4149E-06 IN INTERFACE          9(DTMIN=  0.5000E-06)
   DELETE SECONDARY NODE    9929688 FROM INTERFACE          9
   MAIN NODES :     308390  11172352  11172450  11172453
   20400  0.1020E-01  0.5000E-06 NODE    10817863  -0.1%  0.3822E+07  0.8880E+08  0.4845E+05  -3837.      0.8188E-02   1.227      0.9961E-02
   20500  0.1025E-01  0.5000E-06 NODE      191203  -0.1%  0.3857E+07  0.8876E+08  0.4908E+05  -3845.      0.8188E-02   1.227      0.9962E-02
 **WARNING MINIMUM TIME STEP   0.4887E-06 IN INTERFACE          9(DTMIN=  0.5000E-06)
   DELETE SECONDARY NODE    9934047 FROM INTERFACE          9
   MAIN NODES :     308385  11172307  11172305  11172303
   20600  0.1030E-01  0.5000E-06 NODE    10815668  -0.1%  0.3892E+07  0.8872E+08  0.4989E+05  -3868.      0.8189E-02   1.227      0.9962E-02
 **WARNING MINIMUM TIME STEP   0.4899E-06 IN INTERFACE          9(DTMIN=  0.5000E-06)
   DELETE SECONDARY NODE     313001 FROM INTERFACE          9
   MAIN NODES :     308385  11172303  11172300  11172302
 **WARNING MINIMUM TIME STEP   0.4373E-06 IN INTERFACE         15(DTMIN=  0.5000E-06)
   DELETE SECONDARY NODE      53230 FROM INTERFACE         15
   MAIN NODES :     189040  10867832  10867830  10867831
 **WARNING MINIMUM TIME STEP   0.4912E-06 IN INTERFACE          9(DTMIN=  0.5000E-06)
   DELETE SECONDARY NODE    9934042 FROM INTERFACE          9
   MAIN NODES :     308385  11172303  11172300  11172302
 **WARNING MINIMUM TIME STEP   0.4914E-06 IN INTERFACE          9(DTMIN=  0.5000E-06)
   DELETE SECONDARY NODE    9934037 FROM INTERFACE          9
   MAIN NODES :     308384  11172302  11172300  11172288
   20700  0.1035E-01  0.5000E-06 NODE      191203  -0.1%  0.3928E+07  0.8869E+08  0.5068E+05  -3878.      0.8190E-02   1.227      0.9964E-02
 **WARNING MINIMUM TIME STEP   0.4912E-06 IN INTERFACE          9(DTMIN=  0.5000E-06)
   DELETE SECONDARY NODE     313000 FROM INTERFACE          9
   MAIN NODES :     308384  11172302  11172300  11172288
 **WARNING MINIMUM TIME STEP   0.4936E-06 IN INTERFACE          9(DTMIN=  0.5000E-06)
   DELETE SECONDARY NODE     313005 FROM INTERFACE          9
   MAIN NODES :     308384  11172288  11172285  11172287
 **WARNING MINIMUM TIME STEP   0.4963E-06 IN INTERFACE          9(DTMIN=  0.5000E-06)
   DELETE SECONDARY NODE    9934032 FROM INTERFACE          9
   MAIN NODES :     308384  11172288  11172285  11172287
   20800  0.1040E-01  0.5000E-06 NODE      159416  -0.1%  0.3964E+07  0.8865E+08  0.5155E+05  -3890.      0.8191E-02   1.227      0.9965E-02
   20900  0.1045E-01  0.5000E-06 NODE    10817867  -0.1%  0.4000E+07  0.8861E+08  0.5227E+05  -4076.      0.8191E-02   1.227      0.9965E-02
   21000  0.1050E-01  0.5000E-06 NODE      159416  -0.1%  0.4036E+07  0.8857E+08  0.5290E+05  -4092.      0.8192E-02   1.227      0.9966E-02
   21100  0.1055E-01  0.5000E-06 NODE      191203  -0.1%  0.4075E+07  0.8853E+08  0.5333E+05  -4113.      0.8193E-02   1.227      0.9967E-02
   21200  0.1060E-01  0.5000E-06 NODE    10233255  -0.1%  0.4114E+07  0.8849E+08  0.5353E+05  -4140.      0.8193E-02   1.227      0.9968E-02
   21300  0.1065E-01  0.5000E-06 NODE    10818740  -0.1%  0.4152E+07  0.8845E+08  0.5360E+05  -4150.      0.8193E-02   1.227      0.9968E-02
 **WARNING MINIMUM TIME STEP   0.4594E-06 IN INTERFACE          9(DTMIN=  0.5000E-06)
   DELETE SECONDARY NODE    9929773 FROM INTERFACE          9
   MAIN NODES :     308385  11172398  11172410  11172307
   21400  0.1070E-01  0.5000E-06 NODE      270127  -0.1%  0.4191E+07  0.8841E+08  0.5375E+05  -4170.      0.8194E-02   1.227      0.9969E-02
 **WARNING MINIMUM TIME STEP   0.4244E-06 IN INTERFACE          9(DTMIN=  0.5000E-06)
   DELETE SECONDARY NODE    9929768 FROM INTERFACE          9
   MAIN NODES :     308385  11172302  11172395  11172398
   21500  0.1075E-01  0.5000E-06 NODE      191203  -0.1%  0.4230E+07  0.8837E+08  0.5398E+05  -4192.      0.8195E-02   1.227      0.9970E-02
   21600  0.1080E-01  0.5000E-06 NODE    10240190  -0.1%  0.4270E+07  0.8834E+08  0.5444E+05  -4206.      0.8195E-02   1.227      0.9970E-02
 **WARNING MINIMUM TIME STEP   0.3066E-06 IN INTERFACE          9(DTMIN=  0.5000E-06)
   DELETE SECONDARY NODE     312627 FROM INTERFACE          9
   MAIN NODES :     308880   9936447  11173970  11173972
   21700  0.1085E-01  0.5000E-06 NODE      159637  -0.1%  0.4309E+07  0.8830E+08  0.5437E+05  -4228.      0.8196E-02   1.227      0.9971E-02
   21800  0.1090E-01  0.5000E-06 NODE    10234029  -0.1%  0.4349E+07  0.8826E+08  0.5411E+05  -4330.      0.8196E-02   1.227      0.9972E-02
 **WARNING MINIMUM TIME STEP   0.4780E-06 IN INTERFACE         13(DTMIN=  0.5000E-06)
   DELETE SECONDARY NODE   10793923 FROM INTERFACE         13
   MAIN NODES :     304054   9922543   9922540   9922542
 **WARNING MINIMUM TIME STEP   0.4243E-06 IN INTERFACE          9(DTMIN=  0.5000E-06)
   DELETE SECONDARY NODE     311576 FROM INTERFACE          9
   MAIN NODES :     308384  11172393  11172395  11172302
   21900  0.1095E-01  0.5000E-06 NODE    10817908  -0.1%  0.4388E+07  0.8822E+08  0.5445E+05  -4337.      0.8197E-02   1.227      0.9973E-02
   CYCLE    TIME      TIME-STEP  ELEMENT          ERROR  I-ENERGY    K-ENERGY T  K-ENERGY R  EXT-WORK     MAS.ERR     TOTAL MASS  MASS ADDED
   22000  0.1100E-01  0.5000E-06 NODE      147183  -0.1%  0.4427E+07  0.8818E+08  0.5532E+05  -4458.      0.8198E-02   1.227      0.9973E-02
   22100  0.1105E-01  0.5000E-06 NODE    10817251  -0.1%  0.4466E+07  0.8814E+08  0.5598E+05  -4472.      0.8198E-02   1.227      0.9974E-02
 **WARNING MINIMUM TIME STEP   0.4195E-06 IN INTERFACE         13(DTMIN=  0.5000E-06)
   DELETE SECONDARY NODE     149067 FROM INTERFACE         13
   MAIN NODES :     159493  10819448  10819445  10819447
   22200  0.1110E-01  0.5000E-06 NODE      191203  -0.1%  0.4505E+07  0.8810E+08  0.5656E+05  -4490.      0.8199E-02   1.227      0.9975E-02
   22300  0.1115E-01  0.5000E-06 NODE    10817908  -0.1%  0.4544E+07  0.8806E+08  0.5715E+05  -4507.      0.8200E-02   1.227      0.9976E-02
   22400  0.1120E-01  0.5000E-06 NODE      414608  -0.1%  0.4583E+07  0.8802E+08  0.5763E+05  -4513.      0.8201E-02   1.227      0.9977E-02
   22500  0.1125E-01  0.5000E-06 NODE    10816275  -0.1%  0.4620E+07  0.8798E+08  0.5804E+05  -4534.      0.8201E-02   1.227      0.9977E-02
   22600  0.1130E-01  0.5000E-06 NODE      152617  -0.1%  0.4658E+07  0.8794E+08  0.5855E+05  -4548.      0.8202E-02   1.227      0.9978E-02
   22700  0.1135E-01  0.5000E-06 NODE    10406140  -0.1%  0.4695E+07  0.8790E+08  0.5916E+05  -4563.      0.8202E-02   1.227      0.9979E-02
   22800  0.1140E-01  0.5000E-06 NODE    10230630  -0.1%  0.4732E+07  0.8786E+08  0.5963E+05  -4570.      0.8203E-02   1.227      0.9980E-02
   22900  0.1145E-01  0.5000E-06 NODE    10233040  -0.1%  0.4769E+07  0.8782E+08  0.5998E+05  -4654.      0.8204E-02   1.227      0.9981E-02
   23000  0.1150E-01  0.5000E-06 NODE    10241563  -0.1%  0.4807E+07  0.8778E+08  0.6032E+05  -4747.      0.8204E-02   1.227      0.9981E-02
   23100  0.1155E-01  0.5000E-06 NODE    10816278  -0.1%  0.4845E+07  0.8774E+08  0.6060E+05  -4753.      0.8205E-02   1.227      0.9982E-02
   23200  0.1160E-01  0.5000E-06 NODE    10816278  -0.1%  0.4882E+07  0.8770E+08  0.6105E+05  -4766.      0.8206E-02   1.227      0.9983E-02
   23300  0.1165E-01  0.5000E-06 NODE      158652  -0.1%  0.4919E+07  0.8767E+08  0.6147E+05  -4769.      0.8207E-02   1.227      0.9984E-02
 **WARNING MINIMUM TIME STEP   0.4032E-06 IN INTERFACE         16(DTMIN=  0.5000E-06)
   DELETE SECONDARY NODE     239319 FROM INTERFACE         16
   MAIN NODES :     183036  10853478  10853475  10853477
   23400  0.1170E-01  0.5000E-06 NODE    10816315  -0.1%  0.4956E+07  0.8763E+08  0.6189E+05  -4793.      0.8207E-02   1.227      0.9985E-02
   23500  0.1175E-01  0.5000E-06 NODE    10240400  -0.1%  0.4993E+07  0.8759E+08  0.6221E+05  -4818.      0.8208E-02   1.227      0.9985E-02
   23600  0.1180E-01  0.5000E-06 NODE    10241573  -0.1%  0.5029E+07  0.8755E+08  0.6259E+05  -4822.      0.8208E-02   1.227      0.9986E-02
   23700  0.1185E-01  0.5000E-06 NODE    10813516  -0.1%  0.5065E+07  0.8751E+08  0.6304E+05  -4844.      0.8209E-02   1.227      0.9987E-02
   23800  0.1190E-01  0.5000E-06 NODE    10813556  -0.1%  0.5100E+07  0.8748E+08  0.6330E+05  -4850.      0.8209E-02   1.227      0.9987E-02
 **WARNING MINIMUM TIME STEP   0.4732E-06 IN INTERFACE         13(DTMIN=  0.5000E-06)
   DELETE SECONDARY NODE     152624 FROM INTERFACE         13
   MAIN NODES :     304051   9922543   9922545   9922549
   23900  0.1195E-01  0.5000E-06 NODE    10243427  -0.1%  0.5135E+07  0.8744E+08  0.6370E+05  -4861.      0.8209E-02   1.227      0.9987E-02
   24000  0.1200E-01  0.5000E-06 NODE      413455  -0.1%  0.5170E+07  0.8741E+08  0.6400E+05  -4865.      0.8210E-02   1.227      0.9988E-02
   24100  0.1205E-01  0.5000E-06 NODE    10241585  -0.1%  0.5204E+07  0.8737E+08  0.6456E+05  -4868.      0.8211E-02   1.227      0.9989E-02
   24200  0.1210E-01  0.5000E-06 NODE      304057  -0.1%  0.5238E+07  0.8733E+08  0.6536E+05  -4873.      0.8211E-02   1.227      0.9990E-02
   24300  0.1215E-01  0.5000E-06 NODE      410242  -0.1%  0.5274E+07  0.8730E+08  0.6615E+05  -4927.      0.8212E-02   1.227      0.9990E-02
   24400  0.1220E-01  0.5000E-06 NODE     9927092  -0.1%  0.5309E+07  0.8726E+08  0.6673E+05  -4931.      0.8213E-02   1.227      0.9991E-02
 **WARNING MINIMUM TIME STEP   0.4932E-06 IN INTERFACE         13(DTMIN=  0.5000E-06)
   DELETE SECONDARY NODE     270030 FROM INTERFACE         13
   MAIN NODES :     159483  10819807  10819825  10819828
   24500  0.1225E-01  0.5000E-06 NODE    10233205  -0.1%  0.5344E+07  0.8723E+08  0.6712E+05  -4938.      0.8213E-02   1.227      0.9992E-02
   24600  0.1230E-01  0.5000E-06 NODE      158212  -0.1%  0.5379E+07  0.8719E+08  0.6705E+05  -4950.      0.8214E-02   1.227      0.9993E-02
   24700  0.1235E-01  0.5000E-06 NODE    10406141  -0.1%  0.5414E+07  0.8716E+08  0.6679E+05  -4955.      0.8214E-02   1.227      0.9993E-02
   24800  0.1240E-01  0.5000E-06 NODE    10234310  -0.1%  0.5449E+07  0.8712E+08  0.6696E+05  -5042.      0.8215E-02   1.227      0.9994E-02
   24900  0.1245E-01  0.5000E-06 NODE      304057  -0.1%  0.5485E+07  0.8709E+08  0.6711E+05  -5052.      0.8215E-02   1.227      0.9995E-02
   25000  0.1250E-01  0.5000E-06 NODE    10816277  -0.1%  0.5520E+07  0.8705E+08  0.6707E+05  -5059.      0.8216E-02   1.227      0.9995E-02
 **WARNING MINIMUM TIME STEP   0.4311E-06 IN INTERFACE         14(DTMIN=  0.5000E-06)
   DELETE SECONDARY NODE     272443 FROM INTERFACE         14
   MAIN NODES :     157549  10814757  10814760  10814701
   25100  0.1255E-01  0.5000E-06 NODE    10223654  -0.1%  0.5556E+07  0.8701E+08  0.6723E+05  -5062.      0.8217E-02   1.227      0.9996E-02
   25200  0.1260E-01  0.5000E-06 NODE      413317  -0.1%  0.5591E+07  0.8698E+08  0.6746E+05  -5065.      0.8217E-02   1.227      0.9997E-02
   25300  0.1265E-01  0.5000E-06 NODE      413379  -0.1%  0.5627E+07  0.8694E+08  0.6767E+05  -5066.      0.8218E-02   1.227      0.9997E-02
   25400  0.1270E-01  0.5000E-06 NODE    11190634  -0.1%  0.5663E+07  0.8690E+08  0.6776E+05  -5081.      0.8218E-02   1.227      0.9998E-02
   25500  0.1275E-01  0.5000E-06 NODE    10801038  -0.1%  0.5699E+07  0.8686E+08  0.6796E+05  -5090.      0.8218E-02   1.227      0.9998E-02
   25600  0.1280E-01  0.5000E-06 NODE      413538  -0.1%  0.5733E+07  0.8683E+08  0.6843E+05  -5096.      0.8219E-02   1.227      0.9999E-02
   25700  0.1285E-01  0.5000E-06 NODE    10819702  -0.1%  0.5767E+07  0.8679E+08  0.6879E+05  -5101.      0.8219E-02   1.227      0.9999E-02
   25800  0.1290E-01  0.5000E-06 NODE    10816280  -0.2%  0.5801E+07  0.8676E+08  0.6905E+05  -5102.      0.8220E-02   1.227      0.1000E-01
   25900  0.1295E-01  0.5000E-06 NODE      410246  -0.2%  0.5833E+07  0.8673E+08  0.6904E+05  -5113.      0.8220E-02   1.227      0.1000E-01
   26000  0.1300E-01  0.5000E-06 NODE    10235487  -0.2%  0.5865E+07  0.8669E+08  0.6913E+05  -5119.      0.8221E-02   1.227      0.1000E-01
   26100  0.1305E-01  0.5000E-06 NODE    10816280  -0.2%  0.5895E+07  0.8666E+08  0.6936E+05  -5125.      0.8221E-02   1.227      0.1000E-01
   26200  0.1310E-01  0.5000E-06 NODE    10816280  -0.2%  0.5925E+07  0.8663E+08  0.6954E+05  -5143.      0.8222E-02   1.227      0.1000E-01
 **WARNING MINIMUM TIME STEP   0.4292E-06 IN INTERFACE          9(DTMIN=  0.5000E-06)
   DELETE SECONDARY NODE    9929823 FROM INTERFACE          9
   MAIN NODES :     308381  11172371  11172370  11172272
   26300  0.1315E-01  0.5000E-06 NODE    10040140  -0.2%  0.5954E+07  0.8660E+08  0.6977E+05  -5161.      0.8222E-02   1.227      0.1000E-01
 **WARNING MINIMUM TIME STEP   0.4555E-06 IN INTERFACE          9(DTMIN=  0.5000E-06)
   DELETE SECONDARY NODE     311585 FROM INTERFACE          9
   MAIN NODES :     308381  11172371  11172370  11172272
   26400  0.1320E-01  0.5000E-06 NODE    10238730  -0.2%  0.5984E+07  0.8657E+08  0.7027E+05  -5179.      0.8222E-02   1.227      0.1000E-01
 **WARNING MINIMUM TIME STEP   0.4780E-06 IN INTERFACE          9(DTMIN=  0.5000E-06)
   DELETE SECONDARY NODE    9929803 FROM INTERFACE          9
   MAIN NODES :     308382  11172272  11172370  11172373
   26500  0.1325E-01  0.5000E-06 NODE    10040140  -0.2%  0.6015E+07  0.8654E+08  0.7050E+05  -5204.      0.8223E-02   1.227      0.1000E-01
 **WARNING MINIMUM TIME STEP   0.4556E-06 IN INTERFACE          9(DTMIN=  0.5000E-06)
   DELETE SECONDARY NODE     311573 FROM INTERFACE          9
   MAIN NODES :     308382  11172373  11172380  11172282
   26600  0.1330E-01  0.5000E-06 NODE     9922550  -0.2%  0.6045E+07  0.8651E+08  0.7086E+05  -5215.      0.8223E-02   1.227      0.1000E-01
 **WARNING MINIMUM TIME STEP   0.4049E-06 IN INTERFACE          9(DTMIN=  0.5000E-06)
   DELETE SECONDARY NODE     156508 FROM INTERFACE          9
   MAIN NODES :     158761  10814053  10814105  10814102
   26700  0.1335E-01  0.5000E-06 NODE      156508  -0.2%  0.6075E+07  0.8648E+08  0.7136E+05  -5225.      0.8224E-02   1.227      0.1001E-01
   26800  0.1340E-01  0.5000E-06 NODE       53298  -0.2%  0.6108E+07  0.8644E+08  0.7144E+05  -5234.      0.8225E-02   1.227      0.1001E-01
 **WARNING MINIMUM TIME STEP   0.4333E-06 IN INTERFACE          9(DTMIN=  0.5000E-06)
   DELETE SECONDARY NODE    9929743 FROM INTERFACE          9
   MAIN NODES :     308383  11172282  11172380  11172383
   26900  0.1345E-01  0.5000E-06 NODE    10398340  -0.2%  0.6144E+07  0.8641E+08  0.7180E+05  -5242.      0.8225E-02   1.227      0.1001E-01
   27000  0.1350E-01  0.5000E-06 NODE    10880088  -0.1%  0.6179E+07  0.8638E+08  0.7155E+05  -5247.      0.8225E-02   1.227      0.1001E-01
   27100  0.1355E-01  0.5000E-06 NODE    10816243  -0.2%  0.6213E+07  0.8634E+08  0.7154E+05  -5255.      0.8226E-02   1.227      0.1001E-01
   27200  0.1360E-01  0.5000E-06 NODE    10737942  -0.2%  0.6247E+07  0.8631E+08  0.7163E+05  -5259.      0.8227E-02   1.227      0.1001E-01
 **WARNING MINIMUM TIME STEP   0.4336E-06 IN INTERFACE          9(DTMIN=  0.5000E-06)
   DELETE SECONDARY NODE    9932513 FROM INTERFACE          9
   MAIN NODES :     308818  11171263  11173940   9935012
   27300  0.1365E-01  0.5000E-06 NODE      309617  -0.2%  0.6280E+07  0.8627E+08  0.7146E+05  -5268.      0.8227E-02   1.227      0.1001E-01
   27400  0.1370E-01  0.5000E-06 NODE    10398170  -0.2%  0.6313E+07  0.8624E+08  0.7153E+05  -5274.      0.8228E-02   1.227      0.1001E-01
 **WARNING MINIMUM TIME STEP   0.3259E-06 IN INTERFACE          9(DTMIN=  0.5000E-06)
   DELETE SECONDARY NODE     312615 FROM INTERFACE          9
   MAIN NODES :     308818  11171263  11173940   9935012
 **WARNING MINIMUM TIME STEP   0.4317E-06 IN INTERFACE          9(DTMIN=  0.5000E-06)
   DELETE SECONDARY NODE     311574 FROM INTERFACE          9
   MAIN NODES :     308383  11172282  11172380  11172383
   CYCLE    TIME      TIME-STEP  ELEMENT          ERROR  I-ENERGY    K-ENERGY T  K-ENERGY R  EXT-WORK     MAS.ERR     TOTAL MASS  MASS ADDED
   27500  0.1375E-01  0.5000E-06 NODE      311585  -0.2%  0.6346E+07  0.8621E+08  0.7181E+05  -5287.      0.8228E-02   1.227      0.1001E-01
   27600  0.1380E-01  0.5000E-06 NODE    10040144  -0.2%  0.6379E+07  0.8617E+08  0.7194E+05  -5299.      0.8228E-02   1.227      0.1001E-01
 **WARNING MINIMUM TIME STEP   0.4284E-06 IN INTERFACE          9(DTMIN=  0.5000E-06)
   DELETE SECONDARY NODE     311575 FROM INTERFACE          9
   MAIN NODES :     308383  11172383  11172390  11172287
 **WARNING MINIMUM TIME STEP   0.4300E-06 IN INTERFACE          9(DTMIN=  0.5000E-06)
   DELETE SECONDARY NODE    9929748 FROM INTERFACE          9
   MAIN NODES :     308383  11172383  11172390  11172287
   27700  0.1385E-01  0.5000E-06 NODE    10040144  -0.2%  0.6412E+07  0.8614E+08  0.7215E+05  -5303.      0.8229E-02   1.227      0.1001E-01
 **WARNING MINIMUM TIME STEP   0.4363E-06 IN INTERFACE          9(DTMIN=  0.5000E-06)
   DELETE SECONDARY NODE     311581 FROM INTERFACE          9
   MAIN NODES :     308385  11172302  11172395  11172398
 **WARNING MINIMUM TIME STEP   0.4339E-06 IN INTERFACE         13(DTMIN=  0.5000E-06)
   DELETE SECONDARY NODE     153972 FROM INTERFACE         13
   MAIN NODES :     172450  10828977  10828975  10828953
 **WARNING MINIMUM TIME STEP   0.4270E-06 IN INTERFACE          9(DTMIN=  0.5000E-06)
   DELETE SECONDARY NODE    9929753 FROM INTERFACE          9
   MAIN NODES :     308384  11172287  11172390  11172393
   27800  0.1390E-01  0.5000E-06 NODE    11031414  -0.2%  0.6444E+07  0.8610E+08  0.7250E+05  -5310.      0.8229E-02   1.227      0.1001E-01
   27900  0.1395E-01  0.5000E-06 NODE    10778318  -0.2%  0.6477E+07  0.8607E+08  0.7240E+05  -5327.      0.8230E-02   1.227      0.1001E-01
 **WARNING MINIMUM TIME STEP   0.4833E-06 IN INTERFACE          9(DTMIN=  0.5000E-06)
   DELETE SECONDARY NODE    9929678 FROM INTERFACE          9
   MAIN NODES :     308388  11172428  11172440  11172337
 **WARNING MINIMUM TIME STEP   0.4668E-06 IN INTERFACE          9(DTMIN=  0.5000E-06)
   DELETE SECONDARY NODE     311555 FROM INTERFACE          9
   MAIN NODES :     308389  11172337  11172440  11172443
   28000  0.1400E-01  0.5000E-06 NODE      149262  -0.2%  0.6510E+07  0.8604E+08  0.7233E+05  -5335.      0.8230E-02   1.227      0.1001E-01
 **WARNING MINIMUM TIME STEP   0.4488E-06 IN INTERFACE          9(DTMIN=  0.5000E-06)
   DELETE SECONDARY NODE    9929683 FROM INTERFACE          9
   MAIN NODES :     308389  11172337  11172440  11172443
 **WARNING MINIMUM TIME STEP   0.4316E-06 IN INTERFACE          9(DTMIN=  0.5000E-06)
   DELETE SECONDARY NODE     311556 FROM INTERFACE          9
   MAIN NODES :     308389  11172443  11172450  11172352
   28100  0.1405E-01  0.5000E-06 NODE    10234295  -0.2%  0.6542E+07  0.8600E+08  0.7248E+05  -5341.      0.8231E-02   1.227      0.1001E-01
 **WARNING MINIMUM TIME STEP   0.3775E-06 IN INTERFACE          9(DTMIN=  0.5000E-06)
   DELETE SECONDARY NODE    9929693 FROM INTERFACE          9
   MAIN NODES :     308390  11172352  11172450  11172453
 **WARNING MINIMUM TIME STEP   0.3749E-06 IN INTERFACE          9(DTMIN=  0.5000E-06)
   DELETE SECONDARY NODE     311558 FROM INTERFACE          9
   MAIN NODES :     308390  11172453  11172460  11172362
   28200  0.1410E-01  0.5000E-06 NODE      158603  -0.2%  0.6575E+07  0.8597E+08  0.7251E+05  -5348.      0.8232E-02   1.227      0.1001E-01
 **WARNING MINIMUM TIME STEP   0.3703E-06 IN INTERFACE          9(DTMIN=  0.5000E-06)
   DELETE SECONDARY NODE    9929943 FROM INTERFACE          9
   MAIN NODES :     308390  11172453  11172460  11172362
   28300  0.1415E-01  0.5000E-06 NODE    11190694  -0.2%  0.6608E+07  0.8593E+08  0.7265E+05  -5355.      0.8232E-02   1.227      0.1001E-01
 **WARNING MINIMUM TIME STEP   0.3255E-06 IN INTERFACE          9(DTMIN=  0.5000E-06)
   DELETE SECONDARY NODE     311614 FROM INTERFACE          9
   MAIN NODES :     308391  11172362  11172460  11172463
   28400  0.1420E-01  0.5000E-06 NODE      383767  -0.2%  0.6640E+07  0.8590E+08  0.7324E+05  -5361.      0.8233E-02   1.227      0.1002E-01
 **WARNING MINIMUM TIME STEP   0.2775E-06 IN INTERFACE          9(DTMIN=  0.5000E-06)
   DELETE SECONDARY NODE    9929948 FROM INTERFACE          9
   MAIN NODES :     308391  11172362  11172460  11172463
 **WARNING MINIMUM TIME STEP   0.3122E-06 IN INTERFACE          9(DTMIN=  0.5000E-06)
   DELETE SECONDARY NODE     311615 FROM INTERFACE          9
   MAIN NODES :     308391  11172463  11173740  11173722
   28500  0.1425E-01  0.5000E-06 NODE    11182382  -0.2%  0.6673E+07  0.8587E+08  0.7366E+05  -5368.      0.8234E-02   1.227      0.1002E-01
   28600  0.1430E-01  0.5000E-06 NODE      158603  -0.2%  0.6705E+07  0.8583E+08  0.7396E+05  -5374.      0.8234E-02   1.227      0.1002E-01
   28700  0.1435E-01  0.5000E-06 NODE      158603  -0.2%  0.6736E+07  0.8580E+08  0.7418E+05  -5383.      0.8235E-02   1.227      0.1002E-01
   28800  0.1440E-01  0.5000E-06 NODE      158603  -0.2%  0.6767E+07  0.8577E+08  0.7447E+05  -5393.      0.8236E-02   1.227      0.1002E-01
   28900  0.1445E-01  0.5000E-06 NODE    10815675  -0.2%  0.6798E+07  0.8574E+08  0.7509E+05  -5396.      0.8236E-02   1.227      0.1002E-01
   29000  0.1450E-01  0.5000E-06 NODE    11182382  -0.2%  0.6829E+07  0.8570E+08  0.7566E+05  -5401.      0.8236E-02   1.227      0.1002E-01
   29100  0.1455E-01  0.5000E-06 NODE      415926  -0.2%  0.6862E+07  0.8567E+08  0.7604E+05  -5408.      0.8237E-02   1.227      0.1002E-01
 **WARNING MINIMUM TIME STEP   0.4424E-06 IN INTERFACE          9(DTMIN=  0.5000E-06)
   DELETE SECONDARY NODE     312591 FROM INTERFACE          9
   MAIN NODES :     308250   9934849   9934845   9934848
   29200  0.1460E-01  0.5000E-06 NODE    11021187  -0.2%  0.6895E+07  0.8564E+08  0.7623E+05  -5412.      0.8237E-02   1.227      0.1002E-01
   29300  0.1465E-01  0.5000E-06 NODE    10397838  -0.2%  0.6928E+07  0.8560E+08  0.7628E+05  -5416.      0.8238E-02   1.227      0.1002E-01
   29400  0.1470E-01  0.5000E-06 NODE    11182382  -0.2%  0.6959E+07  0.8557E+08  0.7690E+05  -5421.      0.8238E-02   1.227      0.1002E-01
   29500  0.1475E-01  0.5000E-06 NODE    11031414  -0.2%  0.6991E+07  0.8554E+08  0.7728E+05  -5427.      0.8239E-02   1.227      0.1002E-01
   29600  0.1480E-01  0.5000E-06 NODE    11182382  -0.2%  0.7021E+07  0.8550E+08  0.7760E+05  -5444.      0.8239E-02   1.227      0.1002E-01
   29700  0.1485E-01  0.5000E-06 NODE    10397838  -0.2%  0.7052E+07  0.8547E+08  0.7785E+05  -5450.      0.8240E-02   1.227      0.1002E-01
   29800  0.1490E-01  0.5000E-06 NODE    11189326  -0.2%  0.7084E+07  0.8544E+08  0.7777E+05  -5454.      0.8240E-02   1.227      0.1002E-01
   29900  0.1495E-01  0.5000E-06 NODE    11031414  -0.2%  0.7117E+07  0.8541E+08  0.7790E+05  -5460.      0.8240E-02   1.227      0.1002E-01
   30000  0.1500E-01  0.5000E-06 NODE    10785925  -0.2%  0.7150E+07  0.8537E+08  0.7836E+05  -5468.      0.8241E-02   1.227      0.1003E-01
     ANIMATION FILE: NEON1M11A004 WRITTEN
   30100  0.1505E-01  0.5000E-06 NODE      158703  -0.2%  0.7184E+07  0.8534E+08  0.7968E+05  -5472.      0.8241E-02   1.227      0.1003E-01
 **WARNING MINIMUM TIME STEP   0.4477E-06 IN INTERFACE         14(DTMIN=  0.5000E-06)
   DELETE SECONDARY NODE     150278 FROM INTERFACE         14
   MAIN NODES :     157951  10810483  10810520  10810517
   30200  0.1510E-01  0.5000E-06 NODE    10244667  -0.2%  0.7220E+07  0.8530E+08  0.8079E+05  -5478.      0.8242E-02   1.227      0.1003E-01
   30300  0.1515E-01  0.5000E-06 NODE      237068  -0.2%  0.7256E+07  0.8527E+08  0.8103E+05  -5481.      0.8243E-02   1.227      0.1003E-01
   30400  0.1520E-01  0.5000E-06 NODE    10880088  -0.2%  0.7291E+07  0.8523E+08  0.8114E+05  -5484.      0.8243E-02   1.227      0.1003E-01
   30500  0.1525E-01  0.5000E-06 NODE    10784933  -0.2%  0.7327E+07  0.8519E+08  0.8115E+05  -5487.      0.8243E-02   1.227      0.1003E-01
 **WARNING MINIMUM TIME STEP   0.4019E-06 IN INTERFACE          9(DTMIN=  0.5000E-06)
   DELETE SECONDARY NODE     156515 FROM INTERFACE          9
   MAIN NODES :     158699  10813428  10813425  10813427
   30600  0.1530E-01  0.5000E-06 NODE    10815677  -0.2%  0.7362E+07  0.8516E+08  0.8140E+05  -5492.      0.8244E-02   1.227      0.1003E-01
   30700  0.1535E-01  0.5000E-06 NODE    10815677  -0.2%  0.7398E+07  0.8512E+08  0.8150E+05  -5495.      0.8244E-02   1.227      0.1003E-01
   30800  0.1540E-01  0.5000E-06 NODE    10815677  -0.2%  0.7434E+07  0.8508E+08  0.8158E+05  -5503.      0.8245E-02   1.227      0.1003E-01
   30900  0.1545E-01  0.5000E-06 NODE    10216758  -0.2%  0.7471E+07  0.8504E+08  0.8167E+05  -5506.      0.8245E-02   1.227      0.1003E-01
   31000  0.1550E-01  0.5000E-06 NODE    10798761  -0.2%  0.7507E+07  0.8501E+08  0.8213E+05  -5513.      0.8246E-02   1.227      0.1003E-01
   31100  0.1555E-01  0.5000E-06 NODE    10403203  -0.2%  0.7543E+07  0.8497E+08  0.8278E+05  -5517.      0.8246E-02   1.227      0.1003E-01
   31200  0.1560E-01  0.5000E-06 NODE      191040  -0.2%  0.7581E+07  0.8492E+08  0.8342E+05  -5521.      0.8247E-02   1.227      0.1003E-01
   31300  0.1565E-01  0.5000E-06 NODE    10798497  -0.2%  0.7637E+07  0.8484E+08  0.8433E+05  -5525.      0.8247E-02   1.227      0.1003E-01
   31400  0.1570E-01  0.5000E-06 NODE    10403203  -0.3%  0.7703E+07  0.8474E+08  0.8495E+05  -5535.      0.8248E-02   1.227      0.1003E-01
   31500  0.1575E-01  0.5000E-06 NODE    11031414  -0.3%  0.7751E+07  0.8469E+08  0.8568E+05  -5540.      0.8248E-02   1.227      0.1003E-01
   31600  0.1580E-01  0.5000E-06 NODE    10801760  -0.2%  0.7780E+07  0.8467E+08  0.8644E+05  -5548.      0.8249E-02   1.227      0.1004E-01
   31700  0.1585E-01  0.5000E-06 NODE      191040  -0.2%  0.7809E+07  0.8465E+08  0.8710E+05  -5551.      0.8249E-02   1.227      0.1004E-01
   31800  0.1590E-01  0.5000E-06 NODE    10786629  -0.2%  0.7844E+07  0.8462E+08  0.8743E+05  -5565.      0.8251E-02   1.227      0.1004E-01
   31900  0.1595E-01  0.5000E-06 NODE    11031414  -0.2%  0.7882E+07  0.8458E+08  0.8773E+05  -5573.      0.8251E-02   1.227      0.1004E-01
   32000  0.1600E-01  0.5000E-06 NODE    10876708  -0.2%  0.7922E+07  0.8453E+08  0.8782E+05  -5581.      0.8251E-02   1.227      0.1004E-01
   32100  0.1605E-01  0.5000E-06 NODE    10037792  -0.2%  0.7962E+07  0.8449E+08  0.8811E+05  -5587.      0.8252E-02   1.227      0.1004E-01
   32200  0.1610E-01  0.5000E-06 NODE    10104402  -0.2%  0.8003E+07  0.8445E+08  0.8877E+05  -5595.      0.8253E-02   1.227      0.1004E-01
   32300  0.1615E-01  0.5000E-06 NODE    10812201  -0.2%  0.8045E+07  0.8440E+08  0.9100E+05  -5601.      0.8253E-02   1.227      0.1004E-01
   32400  0.1620E-01  0.5000E-06 NODE    10040140  -0.2%  0.8087E+07  0.8436E+08  0.9298E+05  -5605.      0.8254E-02   1.227      0.1004E-01
   32500  0.1625E-01  0.5000E-06 NODE    11031414  -0.2%  0.8128E+07  0.8431E+08  0.9303E+05  -5610.      0.8254E-02   1.227      0.1004E-01
   32600  0.1630E-01  0.5000E-06 NODE      150424  -0.3%  0.8171E+07  0.8427E+08  0.9310E+05  -5615.      0.8255E-02   1.227      0.1004E-01
   32700  0.1635E-01  0.5000E-06 NODE    10815342  -0.3%  0.8212E+07  0.8423E+08  0.9347E+05  -5623.      0.8255E-02   1.227      0.1004E-01
   32800  0.1640E-01  0.5000E-06 NODE    10781132  -0.3%  0.8254E+07  0.8418E+08  0.9351E+05  -5630.      0.8256E-02   1.227      0.1004E-01
   32900  0.1645E-01  0.5000E-06 NODE    10040140  -0.3%  0.8296E+07  0.8414E+08  0.9378E+05  -5634.      0.8256E-02   1.227      0.1004E-01
   CYCLE    TIME      TIME-STEP  ELEMENT          ERROR  I-ENERGY    K-ENERGY T  K-ENERGY R  EXT-WORK     MAS.ERR     TOTAL MASS  MASS ADDED
   33000  0.1650E-01  0.5000E-06 NODE    10040140  -0.3%  0.8340E+07  0.8410E+08  0.9455E+05  -5644.      0.8257E-02   1.227      0.1004E-01
   33100  0.1655E-01  0.5000E-06 NODE    10787714  -0.2%  0.8390E+07  0.8405E+08  0.9605E+05  -5651.      0.8257E-02   1.227      0.1005E-01
   33200  0.1660E-01  0.5000E-06 NODE    10787714  -0.2%  0.8434E+07  0.8401E+08  0.9581E+05  -5659.      0.8258E-02   1.227      0.1005E-01
   33300  0.1665E-01  0.5000E-06 NODE    10037792  -0.2%  0.8476E+07  0.8397E+08  0.9637E+05  -5666.      0.8258E-02   1.227      0.1005E-01
   33400  0.1670E-01  0.5000E-06 NODE      270028  -0.2%  0.8518E+07  0.8392E+08  0.9758E+05  -5672.      0.8259E-02   1.227      0.1005E-01
   33500  0.1675E-01  0.5000E-06 NODE    10227878  -0.2%  0.8560E+07  0.8388E+08  0.9881E+05  -5682.      0.8260E-02   1.227      0.1005E-01
   33600  0.1680E-01  0.5000E-06 NODE    10815345  -0.3%  0.8603E+07  0.8383E+08  0.9965E+05  -5693.      0.8260E-02   1.227      0.1005E-01
   33700  0.1685E-01  0.5000E-06 NODE      191309  -0.3%  0.8645E+07  0.8379E+08  0.1008E+06  -5716.      0.8260E-02   1.227      0.1005E-01
 **WARNING MINIMUM TIME STEP   0.4063E-06 IN INTERFACE         15(DTMIN=  0.5000E-06)
   DELETE SECONDARY NODE     237065 FROM INTERFACE         15
   MAIN NODES :     189041  10867833  10867835  10867839
   33800  0.1690E-01  0.5000E-06 NODE    10187347  -0.3%  0.8686E+07  0.8374E+08  0.1015E+06  -5734.      0.8261E-02   1.227      0.1005E-01
   33900  0.1695E-01  0.5000E-06 NODE      159336  -0.3%  0.8726E+07  0.8370E+08  0.1023E+06  -5740.      0.8262E-02   1.227      0.1005E-01
   34000  0.1700E-01  0.5000E-06 NODE      159336  -0.3%  0.8769E+07  0.8366E+08  0.1024E+06  -5743.      0.8262E-02   1.227      0.1005E-01
   34100  0.1705E-01  0.5000E-06 NODE    10787714  -0.3%  0.8811E+07  0.8361E+08  0.1024E+06  -5757.      0.8263E-02   1.227      0.1005E-01
   34200  0.1710E-01  0.5000E-06 NODE    10187347  -0.3%  0.8851E+07  0.8357E+08  0.1032E+06  -5767.      0.8263E-02   1.227      0.1005E-01
   34300  0.1715E-01  0.5000E-06 NODE      191308  -0.3%  0.8892E+07  0.8353E+08  0.1034E+06  -5773.      0.8264E-02   1.227      0.1005E-01
   34400  0.1720E-01  0.5000E-06 NODE      380533  -0.3%  0.8929E+07  0.8349E+08  0.1040E+06  -5780.      0.8264E-02   1.227      0.1005E-01
   34500  0.1725E-01  0.5000E-06 NODE    10815403  -0.3%  0.8968E+07  0.8345E+08  0.1041E+06  -5790.      0.8264E-02   1.227      0.1005E-01
   34600  0.1730E-01  0.5000E-06 NODE    10876703  -0.3%  0.9006E+07  0.8341E+08  0.1049E+06  -5798.      0.8265E-02   1.227      0.1005E-01
   34700  0.1735E-01  0.5000E-06 NODE    10187347  -0.3%  0.9045E+07  0.8337E+08  0.1052E+06  -5807.      0.8265E-02   1.227      0.1005E-01
 **WARNING MINIMUM TIME STEP   0.4201E-06 IN INTERFACE         12(DTMIN=  0.5000E-06)
   DELETE SECONDARY NODE     312633 FROM INTERFACE         12
   MAIN NODES :     306212    306272    306274    306215
   34800  0.1740E-01  0.5000E-06 NODE      191308  -0.3%  0.9086E+07  0.8332E+08  0.1057E+06  -5820.      0.8265E-02   1.227      0.1006E-01
   34900  0.1745E-01  0.5000E-06 NODE    10815403  -0.3%  0.9129E+07  0.8328E+08  0.1058E+06  -5833.      0.8266E-02   1.227      0.1006E-01
   35000  0.1750E-01  0.5000E-06 NODE      375533  -0.3%  0.9171E+07  0.8324E+08  0.1059E+06  -5852.      0.8266E-02   1.227      0.1006E-01
   35100  0.1755E-01  0.5000E-06 NODE    10815403  -0.3%  0.9213E+07  0.8319E+08  0.1056E+06  -5881.      0.8266E-02   1.227      0.1006E-01
   35200  0.1760E-01  0.5000E-06 NODE    10815403  -0.3%  0.9257E+07  0.8314E+08  0.1055E+06  -5895.      0.8267E-02   1.227      0.1006E-01
   35300  0.1765E-01  0.5000E-06 NODE    10815403  -0.3%  0.9319E+07  0.8306E+08  0.1059E+06  -5908.      0.8267E-02   1.227      0.1006E-01
   35400  0.1770E-01  0.5000E-06 NODE      375533  -0.3%  0.9381E+07  0.8298E+08  0.1063E+06  -5941.      0.8268E-02   1.227      0.1006E-01
   35500  0.1775E-01  0.5000E-06 NODE    10187347  -0.3%  0.9429E+07  0.8293E+08  0.1062E+06  -5962.      0.8269E-02   1.227      0.1006E-01
   35600  0.1780E-01  0.5000E-06 NODE    10787714  -0.3%  0.9468E+07  0.8289E+08  0.1062E+06  -5985.      0.8269E-02   1.227      0.1006E-01
   35700  0.1785E-01  0.5000E-06 NODE    10787714  -0.3%  0.9508E+07  0.8285E+08  0.1071E+06  -6005.      0.8270E-02   1.227      0.1006E-01
   35800  0.1790E-01  0.5000E-06 NODE    10785513  -0.3%  0.9547E+07  0.8281E+08  0.1079E+06  -6018.      0.8270E-02   1.227      0.1006E-01
   35900  0.1795E-01  0.5000E-06 NODE    10163227  -0.3%  0.9590E+07  0.8276E+08  0.1087E+06  -6050.      0.8271E-02   1.227      0.1006E-01
   36000  0.1800E-01  0.5000E-06 NODE    10787714  -0.3%  0.9634E+07  0.8272E+08  0.1102E+06  -6108.      0.8271E-02   1.227      0.1006E-01
   36100  0.1805E-01  0.5000E-06 NODE    10787714  -0.3%  0.9679E+07  0.8267E+08  0.1112E+06  -6230.      0.8272E-02   1.227      0.1006E-01
   36200  0.1810E-01  0.5000E-06 NODE    10187417  -0.3%  0.9725E+07  0.8262E+08  0.1117E+06  -6306.      0.8272E-02   1.227      0.1006E-01
   36300  0.1815E-01  0.5000E-06 NODE    10815403  -0.3%  0.9773E+07  0.8257E+08  0.1112E+06  -6351.      0.8273E-02   1.227      0.1007E-01
   36400  0.1820E-01  0.5000E-06 NODE    10815398  -0.3%  0.9820E+07  0.8252E+08  0.1118E+06  -6451.      0.8274E-02   1.227      0.1007E-01
   36500  0.1825E-01  0.5000E-06 NODE    10815398  -0.3%  0.9865E+07  0.8247E+08  0.1122E+06  -6511.      0.8274E-02   1.227      0.1007E-01
   36600  0.1830E-01  0.5000E-06 NODE      418165  -0.3%  0.9910E+07  0.8243E+08  0.1126E+06  -6532.      0.8275E-02   1.227      0.1007E-01
   36700  0.1835E-01  0.5000E-06 NODE      191309  -0.3%  0.9957E+07  0.8238E+08  0.1127E+06  -6565.      0.8275E-02   1.227      0.1007E-01
 **WARNING MINIMUM TIME STEP   0.4830E-06 IN INTERFACE          9(DTMIN=  0.5000E-06)
   DELETE SECONDARY NODE     311795 FROM INTERFACE          9
   MAIN NODES :     308873   9934688   9934685   9934687
 **WARNING MINIMUM TIME STEP   0.3861E-06 IN INTERFACE         12(DTMIN=  0.5000E-06)
   DELETE SECONDARY NODE     312977 FROM INTERFACE         12
   MAIN NODES :     306320    306307    306596    306603
   36800  0.1840E-01  0.5000E-06 NODE    10240190  -0.3%  0.1000E+08  0.8233E+08  0.1142E+06  -6581.      0.8275E-02   1.227      0.1007E-01
   36900  0.1845E-01  0.5000E-06 NODE      375533  -0.3%  0.1004E+08  0.8228E+08  0.1156E+06  -6635.      0.8276E-02   1.227      0.1007E-01
 **WARNING MINIMUM TIME STEP   0.4438E-06 IN INTERFACE          9(DTMIN=  0.5000E-06)
   DELETE SECONDARY NODE     312004 FROM INTERFACE          9
   MAIN NODES :     308526   9934673   9934670   9934672
   37000  0.1850E-01  0.5000E-06 NODE      375533  -0.4%  0.1009E+08  0.8224E+08  0.1167E+06  -6657.      0.8277E-02   1.227      0.1007E-01
   37100  0.1855E-01  0.5000E-06 NODE    10815398  -0.4%  0.1013E+08  0.8219E+08  0.1173E+06  -6674.      0.8277E-02   1.227      0.1007E-01
 **WARNING MINIMUM TIME STEP   0.4973E-06 IN INTERFACE         14(DTMIN=  0.5000E-06)
   DELETE SECONDARY NODE     312977 FROM INTERFACE         14
   MAIN NODES :     306320    306307    306596    306603
 **WARNING MINIMUM TIME STEP   0.3731E-06 IN INTERFACE         12(DTMIN=  0.5000E-06)
   DELETE SECONDARY NODE     312974 FROM INTERFACE         12
   MAIN NODES :     306320    306307    306596    306603
   37200  0.1860E-01  0.5000E-06 NODE    11110994  -0.4%  0.1018E+08  0.8214E+08  0.1185E+06  -6687.      0.8278E-02   1.227      0.1007E-01
 **WARNING MINIMUM TIME STEP   0.4973E-06 IN INTERFACE         14(DTMIN=  0.5000E-06)
   DELETE SECONDARY NODE     312974 FROM INTERFACE         14
   MAIN NODES :     306320    306307    306596    306603
   37300  0.1865E-01  0.5000E-06 NODE    10798668  -0.4%  0.1022E+08  0.8209E+08  0.1191E+06  -6700.      0.8279E-02   1.227      0.1007E-01
   37400  0.1870E-01  0.5000E-06 NODE    10875513  -0.4%  0.1027E+08  0.8204E+08  0.1192E+06  -6708.      0.8280E-02   1.227      0.1007E-01
   37500  0.1875E-01  0.5000E-06 NODE    10815398  -0.4%  0.1032E+08  0.8199E+08  0.1199E+06  -6730.      0.8280E-02   1.227      0.1007E-01
   37600  0.1880E-01  0.5000E-06 NODE       52225  -0.4%  0.1037E+08  0.8194E+08  0.1202E+06  -6755.      0.8281E-02   1.227      0.1007E-01
   37700  0.1885E-01  0.5000E-06 NODE    10815398  -0.4%  0.1042E+08  0.8186E+08  0.1201E+06  -6789.      0.8281E-02   1.227      0.1007E-01
   37800  0.1890E-01  0.5000E-06 NODE    10815398  -0.4%  0.1050E+08  0.8176E+08  0.1191E+06  -6841.      0.8282E-02   1.227      0.1008E-01
   37900  0.1895E-01  0.5000E-06 NODE      191309  -0.5%  0.1058E+08  0.8165E+08  0.1198E+06  -6872.      0.8282E-02   1.227      0.1008E-01
   38000  0.1900E-01  0.5000E-06 NODE    10187347  -0.5%  0.1064E+08  0.8159E+08  0.1210E+06  -6899.      0.8283E-02   1.227      0.1008E-01
 **WARNING MINIMUM TIME STEP   0.3950E-06 IN INTERFACE          9(DTMIN=  0.5000E-06)
   DELETE SECONDARY NODE    9929953 FROM INTERFACE          9
   MAIN NODES :     308401  11172553  11172560  11172462
   38100  0.1905E-01  0.5000E-06 NODE    10815398  -0.4%  0.1068E+08  0.8156E+08  0.1226E+06  -6920.      0.8284E-02   1.227      0.1008E-01
   38200  0.1910E-01  0.5000E-06 NODE      380533  -0.4%  0.1073E+08  0.8152E+08  0.1236E+06  -6938.      0.8284E-02   1.227      0.1008E-01
   38300  0.1915E-01  0.5000E-06 NODE    10178938  -0.4%  0.1079E+08  0.8146E+08  0.1252E+06  -7128.      0.8286E-02   1.227      0.1008E-01
 **WARNING MINIMUM TIME STEP   0.4786E-06 IN INTERFACE         13(DTMIN=  0.5000E-06)
   DELETE SECONDARY NODE     312891 FROM INTERFACE         13
   MAIN NODES :     304187   9923112   9923115   9923118
 **WARNING MINIMUM TIME STEP   0.4786E-06 IN INTERFACE         14(DTMIN=  0.5000E-06)
   DELETE SECONDARY NODE     312891 FROM INTERFACE         14
   MAIN NODES :     304187   9923112   9923115   9923118
   38400  0.1920E-01  0.5000E-06 NODE    10815398  -0.4%  0.1085E+08  0.8139E+08  0.1266E+06  -7156.      0.8286E-02   1.227      0.1008E-01
 **WARNING MINIMUM TIME STEP   0.3081E-06 IN INTERFACE          9(DTMIN=  0.5000E-06)
   DELETE SECONDARY NODE     311616 FROM INTERFACE          9
   MAIN NODES :     308412  11172562  11172560  11172553
   CYCLE    TIME      TIME-STEP  ELEMENT          ERROR  I-ENERGY    K-ENERGY T  K-ENERGY R  EXT-WORK     MAS.ERR     TOTAL MASS  MASS ADDED
   38500  0.1925E-01  0.5000E-06 NODE    10187347  -0.4%  0.1091E+08  0.8132E+08  0.1278E+06  -7191.      0.8287E-02   1.227      0.1008E-01
   38600  0.1930E-01  0.5000E-06 NODE      380533  -0.4%  0.1098E+08  0.8126E+08  0.1284E+06  -7214.      0.8288E-02   1.227      0.1008E-01
   38700  0.1935E-01  0.5000E-06 NODE      375533  -0.4%  0.1103E+08  0.8120E+08  0.1289E+06  -7232.      0.8288E-02   1.227      0.1008E-01
 **WARNING MINIMUM TIME STEP   0.4440E-06 IN INTERFACE         12(DTMIN=  0.5000E-06)
   DELETE SECONDARY NODE     312962 FROM INTERFACE         12
   MAIN NODES :     306311    306316    306318    306309
   38800  0.1940E-01  0.5000E-06 NODE    10815398  -0.4%  0.1109E+08  0.8113E+08  0.1293E+06  -7253.      0.8289E-02   1.227      0.1008E-01
 **WARNING MINIMUM TIME STEP   0.4337E-06 IN INTERFACE         12(DTMIN=  0.5000E-06)
   DELETE SECONDARY NODE     312960 FROM INTERFACE         12
   MAIN NODES :     306313    306324    306316    306311
   38900  0.1945E-01  0.5000E-06 NODE    10163227  -0.4%  0.1115E+08  0.8107E+08  0.1312E+06  -7269.      0.8289E-02   1.227      0.1008E-01
 **WARNING MINIMUM TIME STEP   0.4246E-06 IN INTERFACE         12(DTMIN=  0.5000E-06)
   DELETE SECONDARY NODE    9933769 FROM INTERFACE         12
   MAIN NODES :     306313    306324    306316    306311
 **WARNING MINIMUM TIME STEP   0.4562E-06 IN INTERFACE         12(DTMIN=  0.5000E-06)
   DELETE SECONDARY NODE    9933781 FROM INTERFACE         12
   MAIN NODES :     306330    306318    306316    306332
   39000  0.1950E-01  0.5000E-06 NODE    10403698  -0.4%  0.1121E+08  0.8101E+08  0.1322E+06  -7308.      0.8290E-02   1.227      0.1009E-01
 **WARNING MINIMUM TIME STEP   0.3418E-06 IN INTERFACE         12(DTMIN=  0.5000E-06)
   DELETE SECONDARY NODE     312955 FROM INTERFACE         12
   MAIN NODES :     306330    306318    306316    306332
 **WARNING MINIMUM TIME STEP   0.4341E-06 IN INTERFACE         12(DTMIN=  0.5000E-06)
   DELETE SECONDARY NODE    9933776 FROM INTERFACE         12
   MAIN NODES :     306311    306316    306318    306309
 **WARNING MINIMUM TIME STEP   0.2997E-06 IN INTERFACE         12(DTMIN=  0.5000E-06)
   DELETE SECONDARY NODE     312951 FROM INTERFACE         12
   MAIN NODES :     306313    306324    306316    306311
   39100  0.1955E-01  0.5000E-06 NODE      375533  -0.5%  0.1128E+08  0.8094E+08  0.1334E+06  -7360.      0.8291E-02   1.227      0.1009E-01
   39200  0.1960E-01  0.5000E-06 NODE    10799646  -0.5%  0.1134E+08  0.8087E+08  0.1346E+06  -7394.      0.8292E-02   1.227      0.1009E-01
   39300  0.1965E-01  0.5000E-06 NODE    10163227  -0.5%  0.1141E+08  0.8080E+08  0.1348E+06  -7412.      0.8293E-02   1.227      0.1009E-01
   39400  0.1970E-01  0.5000E-06 NODE    10040168  -0.5%  0.1147E+08  0.8073E+08  0.1360E+06  -7433.      0.8294E-02   1.227      0.1009E-01
 **WARNING MINIMUM TIME STEP   0.4984E-06 IN INTERFACE         13(DTMIN=  0.5000E-06)
   DELETE SECONDARY NODE     312951 FROM INTERFACE         13
   MAIN NODES :     306313    306324    306316    306311
 **WARNING MINIMUM TIME STEP   0.4984E-06 IN INTERFACE         14(DTMIN=  0.5000E-06)
   DELETE SECONDARY NODE     312951 FROM INTERFACE         14
   MAIN NODES :     306313    306324    306316    306311
 **WARNING MINIMUM TIME STEP   0.3062E-06 IN INTERFACE         12(DTMIN=  0.5000E-06)
   DELETE SECONDARY NODE     312952 FROM INTERFACE         12
   MAIN NODES :     306311    306316    306318    306309
   39500  0.1975E-01  0.5000E-06 NODE    10403698  -0.5%  0.1153E+08  0.8067E+08  0.1378E+06  -7460.      0.8295E-02   1.227      0.1009E-01
   39600  0.1980E-01  0.5000E-06 NODE    10040168  -0.5%  0.1159E+08  0.8060E+08  0.1401E+06  -7482.      0.8295E-02   1.227      0.1009E-01
   39700  0.1985E-01  0.5000E-06 NODE    11022572  -0.5%  0.1165E+08  0.8053E+08  0.1416E+06  -7507.      0.8296E-02   1.227      0.1009E-01
   39800  0.1990E-01  0.5000E-06 NODE      152612  -0.5%  0.1172E+08  0.8047E+08  0.1420E+06  -7537.      0.8297E-02   1.227      0.1009E-01
   39900  0.1995E-01  0.5000E-06 NODE      380533  -0.5%  0.1178E+08  0.8040E+08  0.1416E+06  -7568.      0.8297E-02   1.227      0.1009E-01
   40000  0.2000E-01  0.5000E-06 NODE    10798705  -0.5%  0.1185E+08  0.8033E+08  0.1428E+06  -7615.      0.8298E-02   1.227      0.1009E-01
     ANIMATION FILE: NEON1M11A005 WRITTEN
   40100  0.2005E-01  0.5000E-06 NODE    10489891  -0.5%  0.1191E+08  0.8026E+08  0.1447E+06  -7637.      0.8299E-02   1.227      0.1010E-01
   40200  0.2010E-01  0.5000E-06 NODE    11111307  -0.5%  0.1197E+08  0.8020E+08  0.1462E+06  -7653.      0.8300E-02   1.227      0.1010E-01
 **WARNING MINIMUM TIME STEP   0.4313E-06 IN INTERFACE         12(DTMIN=  0.5000E-06)
   DELETE SECONDARY NODE    9933766 FROM INTERFACE         12
   MAIN NODES :     306313    306324    306316    306311
   40300  0.2015E-01  0.5000E-06 NODE    10040168  -0.5%  0.1203E+08  0.8014E+08  0.1476E+06  -7669.      0.8301E-02   1.227      0.1010E-01
   40400  0.2020E-01  0.5000E-06 NODE    10815760  -0.5%  0.1208E+08  0.8008E+08  0.1489E+06  -7696.      0.8301E-02   1.227      0.1010E-01
 **WARNING MINIMUM TIME STEP   0.4454E-06 IN INTERFACE         12(DTMIN=  0.5000E-06)
   DELETE SECONDARY NODE    9933779 FROM INTERFACE         12
   MAIN NODES :     306311    306316    306318    306309
   40500  0.2025E-01  0.5000E-06 NODE      375533  -0.5%  0.1214E+08  0.8001E+08  0.1508E+06  -7735.      0.8302E-02   1.227      0.1010E-01
   40600  0.2030E-01  0.5000E-06 NODE    10787650  -0.5%  0.1220E+08  0.7996E+08  0.1529E+06  -7763.      0.8303E-02   1.227      0.1010E-01
 **WARNING MINIMUM TIME STEP   0.4250E-06 IN INTERFACE          9(DTMIN=  0.5000E-06)
   DELETE SECONDARY NODE    9929952 FROM INTERFACE          9
   MAIN NODES :     308412  11172653  11172655  11172562
   40700  0.2035E-01  0.5000E-06 NODE    10876703  -0.5%  0.1225E+08  0.7990E+08  0.1534E+06  -7790.      0.8304E-02   1.227      0.1010E-01
   40800  0.2040E-01  0.5000E-06 NODE    10784805  -0.5%  0.1231E+08  0.7984E+08  0.1541E+06  -7809.      0.8305E-02   1.227      0.1010E-01
 **WARNING MINIMUM TIME STEP   0.2795E-06 IN INTERFACE         13(DTMIN=  0.5000E-06)
   DELETE SECONDARY NODE     312707 FROM INTERFACE         13
   MAIN NODES :     304323   9922242   9922240   9922238
 **WARNING MINIMUM TIME STEP   0.2795E-06 IN INTERFACE         14(DTMIN=  0.5000E-06)
   DELETE SECONDARY NODE     312707 FROM INTERFACE         14
   MAIN NODES :     304323   9922242   9922240   9922238
   40900  0.2045E-01  0.5000E-06 NODE      270420  -0.5%  0.1237E+08  0.7977E+08  0.1556E+06  -7874.      0.8306E-02   1.227      0.1011E-01
   41000  0.2050E-01  0.5000E-06 NODE    10401229  -0.5%  0.1243E+08  0.7971E+08  0.1577E+06  -7975.      0.8307E-02   1.227      0.1011E-01
   41100  0.2055E-01  0.5000E-06 NODE    10398752  -0.5%  0.1249E+08  0.7964E+08  0.1592E+06  -7998.      0.8308E-02   1.227      0.1011E-01
   41200  0.2060E-01  0.5000E-06 NODE    10178938  -0.5%  0.1255E+08  0.7958E+08  0.1604E+06  -8029.      0.8309E-02   1.227      0.1011E-01
   41300  0.2065E-01  0.5000E-06 NODE    10398752  -0.5%  0.1262E+08  0.7952E+08  0.1602E+06  -8053.      0.8310E-02   1.227      0.1011E-01
   41400  0.2070E-01  0.5000E-06 NODE    10880266  -0.5%  0.1268E+08  0.7945E+08  0.1606E+06  -8064.      0.8311E-02   1.227      0.1011E-01
   41500  0.2075E-01  0.5000E-06 NODE      192071  -0.5%  0.1274E+08  0.7938E+08  0.1611E+06  -8079.      0.8311E-02   1.227      0.1011E-01
   41600  0.2080E-01  0.5000E-06 NODE    10187347  -0.5%  0.1280E+08  0.7931E+08  0.1612E+06  -8096.      0.8313E-02   1.227      0.1011E-01
   41700  0.2085E-01  0.5000E-06 NODE    10813508  -0.5%  0.1287E+08  0.7924E+08  0.1607E+06  -8119.      0.8313E-02   1.227      0.1011E-01
   41800  0.2090E-01  0.5000E-06 NODE    10813508  -0.5%  0.1293E+08  0.7917E+08  0.1612E+06  -8140.      0.8315E-02   1.227      0.1012E-01
   41900  0.2095E-01  0.5000E-06 NODE      375533  -0.5%  0.1299E+08  0.7911E+08  0.1622E+06  -8160.      0.8316E-02   1.227      0.1012E-01
   42000  0.2100E-01  0.5000E-06 NODE    10154818  -0.5%  0.1305E+08  0.7905E+08  0.1632E+06  -8176.      0.8317E-02   1.227      0.1012E-01
   42100  0.2105E-01  0.5000E-06 NODE      191308  -0.5%  0.1311E+08  0.7899E+08  0.1633E+06  -8202.      0.8318E-02   1.227      0.1012E-01
   42200  0.2110E-01  0.5000E-06 NODE    10811713  -0.5%  0.1317E+08  0.7892E+08  0.1652E+06  -8221.      0.8320E-02   1.227      0.1012E-01
   42300  0.2115E-01  0.5000E-06 NODE      159519  -0.5%  0.1324E+08  0.7885E+08  0.1654E+06  -8237.      0.8321E-02   1.227      0.1012E-01
   42400  0.2120E-01  0.5000E-06 NODE    10876703  -0.6%  0.1330E+08  0.7879E+08  0.1665E+06  -8262.      0.8322E-02   1.227      0.1012E-01
   42500  0.2125E-01  0.5000E-06 NODE    10809250  -0.6%  0.1336E+08  0.7871E+08  0.1671E+06  -8275.      0.8323E-02   1.227      0.1013E-01
   42600  0.2130E-01  0.5000E-06 NODE      345359  -0.6%  0.1343E+08  0.7864E+08  0.1672E+06  -8294.      0.8324E-02   1.227      0.1013E-01
   42700  0.2135E-01  0.5000E-06 NODE    10242589  -0.6%  0.1350E+08  0.7856E+08  0.1676E+06  -8317.      0.8324E-02   1.227      0.1013E-01
 **WARNING MINIMUM TIME STEP   0.4786E-06 IN INTERFACE          9(DTMIN=  0.5000E-06)
   DELETE SECONDARY NODE    9931462 FROM INTERFACE          9
   MAIN NODES :     308525   9934678   9934675   9934677
   42800  0.2140E-01  0.5000E-06 NODE       26015  -0.6%  0.1357E+08  0.7848E+08  0.1691E+06  -8336.      0.8326E-02   1.227      0.1013E-01
 **WARNING MINIMUM TIME STEP   0.4797E-06 IN INTERFACE         13(DTMIN=  0.5000E-06)
   DELETE SECONDARY NODE    9930866 FROM INTERFACE         13
   MAIN NODES :     304138   9922902   9922930   9922928
   42900  0.2145E-01  0.5000E-06 NODE    10154815  -0.6%  0.1364E+08  0.7840E+08  0.1707E+06  -8351.      0.8327E-02   1.227      0.1013E-01
   43000  0.2150E-01  0.5000E-06 NODE      304203  -0.6%  0.1371E+08  0.7833E+08  0.1733E+06  -8375.      0.8327E-02   1.227      0.1013E-01
 **WARNING MINIMUM TIME STEP   0.4623E-06 IN INTERFACE          9(DTMIN=  0.5000E-06)
   DELETE SECONDARY NODE    9932752 FROM INTERFACE          9
   MAIN NODES :     308391  11172362  11172460  11172463
   43100  0.2155E-01  0.5000E-06 NODE      310125  -0.6%  0.1377E+08  0.7826E+08  0.1749E+06  -8388.      0.8328E-02   1.227      0.1013E-01
 **WARNING MINIMUM TIME STEP   0.4988E-06 IN INTERFACE         12(DTMIN=  0.5000E-06)
   DELETE SECONDARY NODE    9933828 FROM INTERFACE         12
   MAIN NODES :     306330    306318    306316    306332
   43200  0.2160E-01  0.5000E-06 NODE    10187347  -0.6%  0.1384E+08  0.7819E+08  0.1765E+06  -8406.      0.8329E-02   1.227      0.1013E-01
 **WARNING MINIMUM TIME STEP   0.4698E-06 IN INTERFACE         13(DTMIN=  0.5000E-06)
   DELETE SECONDARY NODE     270395 FROM INTERFACE         13
   MAIN NODES :     176463  10842397  10842395  10842396
   43300  0.2165E-01  0.5000E-06 NODE      390936  -0.6%  0.1391E+08  0.7812E+08  0.1764E+06  -8414.      0.8330E-02   1.227      0.1013E-01
   43400  0.2170E-01  0.5000E-06 NODE    10241812  -0.6%  0.1398E+08  0.7804E+08  0.1771E+06  -8447.      0.8331E-02   1.227      0.1013E-01
   43500  0.2175E-01  0.5000E-06 NODE      191308  -0.6%  0.1404E+08  0.7797E+08  0.1797E+06  -8476.      0.8331E-02   1.227      0.1014E-01
   43600  0.2180E-01  0.5000E-06 NODE    10876703  -0.6%  0.1411E+08  0.7790E+08  0.1796E+06  -8494.      0.8332E-02   1.227      0.1014E-01
   43700  0.2185E-01  0.5000E-06 NODE      415423  -0.6%  0.1418E+08  0.7783E+08  0.1790E+06  -8509.      0.8333E-02   1.227      0.1014E-01
 **WARNING MINIMUM TIME STEP   0.4471E-06 IN INTERFACE         12(DTMIN=  0.5000E-06)
   DELETE SECONDARY NODE    9933774 FROM INTERFACE         12
   MAIN NODES :     306332    306316    306324    306334
 **WARNING MINIMUM TIME STEP   0.3426E-06 IN INTERFACE         12(DTMIN=  0.5000E-06)
   DELETE SECONDARY NODE     312949 FROM INTERFACE         12
   MAIN NODES :     306332    306316    306324    306334
   43800  0.2190E-01  0.5000E-06 NODE    10403688  -0.6%  0.1424E+08  0.7776E+08  0.1799E+06  -8517.      0.8334E-02   1.227      0.1014E-01
 **WARNING MINIMUM TIME STEP   0.4676E-06 IN INTERFACE         12(DTMIN=  0.5000E-06)
   DELETE SECONDARY NODE     312958 FROM INTERFACE         12
   MAIN NODES :     306330    306318    306316    306332
   43900  0.2195E-01  0.5000E-06 NODE      150526  -0.6%  0.1431E+08  0.7769E+08  0.1803E+06  -8528.      0.8335E-02   1.227      0.1014E-01
   CYCLE    TIME      TIME-STEP  ELEMENT          ERROR  I-ENERGY    K-ENERGY T  K-ENERGY R  EXT-WORK     MAS.ERR     TOTAL MASS  MASS ADDED
   44000  0.2200E-01  0.5000E-06 NODE      434022  -0.6%  0.1437E+08  0.7762E+08  0.1801E+06  -8558.      0.8335E-02   1.227      0.1014E-01
   44100  0.2205E-01  0.5000E-06 NODE    10484159  -0.7%  0.1445E+08  0.7753E+08  0.1833E+06  -8577.      0.8336E-02   1.227      0.1014E-01
 **WARNING MINIMUM TIME STEP   0.4437E-06 IN INTERFACE         12(DTMIN=  0.5000E-06)
   DELETE SECONDARY NODE   11177916 FROM INTERFACE         12
   MAIN NODES :     306336    306338    306330    306332
   44200  0.2210E-01  0.5000E-06 NODE    10117564  -0.7%  0.1453E+08  0.7742E+08  0.1835E+06  -8591.      0.8337E-02   1.227      0.1014E-01
   44300  0.2215E-01  0.5000E-06 NODE    10800901  -0.7%  0.1461E+08  0.7733E+08  0.1858E+06  -8698.      0.8338E-02   1.227      0.1014E-01
   44400  0.2220E-01  0.5000E-06 NODE    10178938  -0.7%  0.1469E+08  0.7725E+08  0.1875E+06  -8747.      0.8339E-02   1.227      0.1014E-01
   44500  0.2225E-01  0.5000E-06 NODE    10242388  -0.7%  0.1476E+08  0.7718E+08  0.1879E+06  -8771.      0.8339E-02   1.227      0.1015E-01
 **WARNING MINIMUM TIME STEP   0.3957E-06 IN INTERFACE         13(DTMIN=  0.5000E-06)
   DELETE SECONDARY NODE    9932842 FROM INTERFACE         13
   MAIN NODES :     304323   9922238   9922235   9922237
 **WARNING MINIMUM TIME STEP   0.3957E-06 IN INTERFACE         14(DTMIN=  0.5000E-06)
   DELETE SECONDARY NODE    9932842 FROM INTERFACE         14
   MAIN NODES :     304323   9922238   9922235   9922237
   44600  0.2230E-01  0.5000E-06 NODE    10778527  -0.7%  0.1483E+08  0.7710E+08  0.1888E+06  -8800.      0.8341E-02   1.227      0.1015E-01
   44700  0.2235E-01  0.5000E-06 NODE     9932972  -0.7%  0.1490E+08  0.7703E+08  0.1907E+06  -8811.      0.8342E-02   1.227      0.1015E-01
   44800  0.2240E-01  0.5000E-06 NODE     9923200  -0.7%  0.1497E+08  0.7695E+08  0.1920E+06  -8827.      0.8343E-02   1.227      0.1015E-01
 **WARNING MINIMUM TIME STEP   0.4583E-06 IN INTERFACE         13(DTMIN=  0.5000E-06)
   DELETE SECONDARY NODE    9933601 FROM INTERFACE         13
   MAIN NODES :     304181   9923106   9923105   9923109
 **WARNING MINIMUM TIME STEP   0.4583E-06 IN INTERFACE         14(DTMIN=  0.5000E-06)
   DELETE SECONDARY NODE    9933601 FROM INTERFACE         14
   MAIN NODES :     304181   9923106   9923105   9923109
   44900  0.2245E-01  0.5000E-06 NODE    10242526  -0.7%  0.1505E+08  0.7687E+08  0.1928E+06  -8840.      0.8344E-02   1.227      0.1015E-01
   45000  0.2250E-01  0.5000E-06 NODE    10401162  -0.7%  0.1512E+08  0.7678E+08  0.1941E+06  -8851.      0.8344E-02   1.227      0.1015E-01
 **WARNING MINIMUM TIME STEP   0.4857E-06 IN INTERFACE         13(DTMIN=  0.5000E-06)
   DELETE SECONDARY NODE     312893 FROM INTERFACE         13
   MAIN NODES :     304185   9923109   9923105   9923108
 **WARNING MINIMUM TIME STEP   0.4857E-06 IN INTERFACE         14(DTMIN=  0.5000E-06)
   DELETE SECONDARY NODE     312893 FROM INTERFACE         14
   MAIN NODES :     304185   9923109   9923105   9923108
   45100  0.2255E-01  0.5000E-06 NODE    10242589  -0.7%  0.1521E+08  0.7670E+08  0.1938E+06  -8864.      0.8345E-02   1.227      0.1015E-01
 **WARNING MINIMUM TIME STEP   0.3803E-06 IN INTERFACE         16(DTMIN=  0.5000E-06)
   DELETE SECONDARY NODE       3947 FROM INTERFACE         16
   MAIN NODES :     509533  11169301  11169300  11169297
   45200  0.2260E-01  0.5000E-06 NODE    10862902  -0.7%  0.1529E+08  0.7661E+08  0.1944E+06  -8877.      0.8346E-02   1.227      0.1015E-01
   45300  0.2265E-01  0.5000E-06 NODE    10178938  -0.7%  0.1537E+08  0.7653E+08  0.1959E+06  -8894.      0.8348E-02   1.227      0.1016E-01
   45400  0.2270E-01  0.5000E-06 NODE    10787658  -0.7%  0.1544E+08  0.7644E+08  0.1980E+06  -8909.      0.8349E-02   1.227      0.1016E-01
   45500  0.2275E-01  0.5000E-06 NODE    10241782  -0.7%  0.1552E+08  0.7636E+08  0.1988E+06  -8927.      0.8350E-02   1.227      0.1016E-01
   45600  0.2280E-01  0.5000E-06 NODE    10800958  -0.7%  0.1559E+08  0.7628E+08  0.1998E+06  -8958.      0.8351E-02   1.227      0.1016E-01
 **WARNING MINIMUM TIME STEP   0.4646E-06 IN INTERFACE         12(DTMIN=  0.5000E-06)
   DELETE SECONDARY NODE    9933827 FROM INTERFACE         12
   MAIN NODES :     306330    306318    306316    306332
   45700  0.2285E-01  0.5000E-06 NODE    10484159  -0.7%  0.1567E+08  0.7621E+08  0.2012E+06  -8978.      0.8351E-02   1.227      0.1016E-01
   45800  0.2290E-01  0.5000E-06 NODE      159010  -0.7%  0.1574E+08  0.7613E+08  0.2036E+06  -8987.      0.8353E-02   1.227      0.1016E-01
 **WARNING MINIMUM TIME STEP   0.4889E-06 IN INTERFACE          9(DTMIN=  0.5000E-06)
   DELETE SECONDARY NODE    9932925 FROM INTERFACE          9
   MAIN NODES :     308390  11172453  11172460  11172362
   45900  0.2295E-01  0.5000E-06 NODE    10403676  -0.8%  0.1581E+08  0.7605E+08  0.2041E+06  -8996.      0.8355E-02   1.227      0.1016E-01
   46000  0.2300E-01  0.5000E-06 NODE    11190666  -0.8%  0.1588E+08  0.7597E+08  0.2049E+06  -9016.      0.8355E-02   1.227      0.1016E-01
   46100  0.2305E-01  0.5000E-06 NODE    10814617  -0.8%  0.1595E+08  0.7590E+08  0.2046E+06  -9038.      0.8356E-02   1.227      0.1017E-01
   46200  0.2310E-01  0.5000E-06 NODE    10809682  -0.8%  0.1603E+08  0.7581E+08  0.2043E+06  -9050.      0.8357E-02   1.227      0.1017E-01
   46300  0.2315E-01  0.5000E-06 NODE    10787653  -0.8%  0.1611E+08  0.7573E+08  0.2053E+06  -9068.      0.8358E-02   1.227      0.1017E-01
   46400  0.2320E-01  0.5000E-06 NODE    10787826  -0.8%  0.1618E+08  0.7565E+08  0.2066E+06  -9080.      0.8359E-02   1.227      0.1017E-01
   46500  0.2325E-01  0.5000E-06 NODE    10243369  -0.8%  0.1625E+08  0.7557E+08  0.2074E+06  -9089.      0.8360E-02   1.227      0.1017E-01
   46600  0.2330E-01  0.5000E-06 NODE    10243369  -0.8%  0.1633E+08  0.7549E+08  0.2083E+06  -9097.      0.8361E-02   1.227      0.1017E-01
   46700  0.2335E-01  0.5000E-06 NODE     9923203  -0.8%  0.1640E+08  0.7541E+08  0.2100E+06  -9103.      0.8362E-02   1.227      0.1017E-01
   46800  0.2340E-01  0.5000E-06 NODE    10815722  -0.8%  0.1649E+08  0.7533E+08  0.2105E+06  -9112.      0.8363E-02   1.227      0.1017E-01
   46900  0.2345E-01  0.5000E-06 NODE    10403585  -0.8%  0.1657E+08  0.7524E+08  0.2109E+06  -9125.      0.8364E-02   1.227      0.1018E-01
   47000  0.2350E-01  0.5000E-06 NODE    11189560  -0.8%  0.1665E+08  0.7516E+08  0.2102E+06  -9140.      0.8365E-02   1.227      0.1018E-01
   47100  0.2355E-01  0.5000E-06 NODE    10787653  -0.8%  0.1672E+08  0.7508E+08  0.2117E+06  -9150.      0.8367E-02   1.227      0.1018E-01
   47200  0.2360E-01  0.5000E-06 NODE    10800975  -0.8%  0.1680E+08  0.7500E+08  0.2123E+06  -9167.      0.8368E-02   1.227      0.1018E-01
   47300  0.2365E-01  0.5000E-06 NODE    10787672  -0.8%  0.1687E+08  0.7491E+08  0.2145E+06  -9192.      0.8369E-02   1.227      0.1018E-01
   47400  0.2370E-01  0.5000E-06 NODE    11189558  -0.8%  0.1695E+08  0.7483E+08  0.2142E+06  -9206.      0.8370E-02   1.227      0.1018E-01
 **WARNING MINIMUM TIME STEP   0.4759E-06 IN INTERFACE         14(DTMIN=  0.5000E-06)
   DELETE SECONDARY NODE    9932253 FROM INTERFACE         14
   MAIN NODES :     308258   9934933   9934930   9934889
 **WARNING MINIMUM TIME STEP   0.4887E-06 IN INTERFACE         14(DTMIN=  0.5000E-06)
   DELETE SECONDARY NODE     312557 FROM INTERFACE         14
   MAIN NODES :     308258   9934933   9934930   9934889
 **WARNING MINIMUM TIME STEP   0.4559E-06 IN INTERFACE         14(DTMIN=  0.5000E-06)
   DELETE SECONDARY NODE     312558 FROM INTERFACE         14
   MAIN NODES :     308258   9934894   9934935   9934933
   47500  0.2375E-01  0.5000E-06 NODE    10104796  -0.8%  0.1703E+08  0.7475E+08  0.2144E+06  -9213.      0.8372E-02   1.227      0.1018E-01
 **WARNING MINIMUM TIME STEP   0.4991E-06 IN INTERFACE         14(DTMIN=  0.5000E-06)
   DELETE SECONDARY NODE    9932248 FROM INTERFACE         14
   MAIN NODES :     308257   9934889   9934930   9934928
   47600  0.2380E-01  0.5000E-06 NODE    10220973  -0.8%  0.1711E+08  0.7467E+08  0.2144E+06  -9219.      0.8373E-02   1.227      0.1019E-01
 **WARNING MINIMUM TIME STEP   0.4362E-06 IN INTERFACE          9(DTMIN=  0.5000E-06)
   DELETE SECONDARY NODE    9929947 FROM INTERFACE          9
   MAIN NODES :     308423  11172657  11172655  11172653
 **WARNING MINIMUM TIME STEP   0.4908E-06 IN INTERFACE          9(DTMIN=  0.5000E-06)
   DELETE SECONDARY NODE    9932742 FROM INTERFACE          9
   MAIN NODES :     308380  11172263  11172260  11172262
   47700  0.2385E-01  0.5000E-06 NODE      312083  -0.8%  0.1719E+08  0.7458E+08  0.2159E+06  -9249.      0.8374E-02   1.227      0.1019E-01
   47800  0.2390E-01  0.5000E-06 NODE      410770  -0.8%  0.1727E+08  0.7449E+08  0.2173E+06  -9268.      0.8376E-02   1.227      0.1019E-01
 **WARNING MINIMUM TIME STEP   0.4885E-06 IN INTERFACE          9(DTMIN=  0.5000E-06)
   DELETE SECONDARY NODE    9932737 FROM INTERFACE          9
   MAIN NODES :     308369  11172157  11172260  11172263
   47900  0.2395E-01  0.5000E-06 NODE    11189560  -0.9%  0.1734E+08  0.7441E+08  0.2180E+06  -9279.      0.8378E-02   1.227      0.1019E-01
   48000  0.2400E-01  0.5000E-06 NODE    11189560  -0.9%  0.1742E+08  0.7433E+08  0.2174E+06  -9287.      0.8379E-02   1.227      0.1019E-01
   48100  0.2405E-01  0.5000E-06 NODE    10808412  -0.9%  0.1750E+08  0.7425E+08  0.2183E+06  -9296.      0.8381E-02   1.227      0.1020E-01
   48200  0.2410E-01  0.5000E-06 NODE      157537  -0.9%  0.1758E+08  0.7416E+08  0.2208E+06  -9350.      0.8382E-02   1.227      0.1020E-01
   48300  0.2415E-01  0.5000E-06 NODE    10820263  -0.9%  0.1767E+08  0.7407E+08  0.2231E+06  -9359.      0.8384E-02   1.227      0.1020E-01
   48400  0.2420E-01  0.5000E-06 NODE    10815608  -0.9%  0.1774E+08  0.7399E+08  0.2256E+06  -9373.      0.8386E-02   1.227      0.1020E-01
   48500  0.2425E-01  0.5000E-06 NODE    10815800  -0.9%  0.1782E+08  0.7390E+08  0.2286E+06  -9383.      0.8387E-02   1.227      0.1020E-01
   48600  0.2430E-01  0.5000E-06 NODE    10787674  -0.9%  0.1791E+08  0.7381E+08  0.2305E+06  -9401.      0.8388E-02   1.227      0.1020E-01
 **WARNING MINIMUM TIME STEP   0.4241E-06 IN INTERFACE         14(DTMIN=  0.5000E-06)
   DELETE SECONDARY NODE    9932503 FROM INTERFACE         14
   MAIN NODES :     308259   9934938   9934935   9934894
   48700  0.2435E-01  0.5000E-06 NODE      158594  -0.9%  0.1800E+08  0.7371E+08  0.2299E+06  -9416.      0.8389E-02   1.227      0.1021E-01
 **WARNING MINIMUM TIME STEP   0.4096E-06 IN INTERFACE         13(DTMIN=  0.5000E-06)
   DELETE SECONDARY NODE    9929693 FROM INTERFACE         13
   MAIN NODES :     304170   9923088   9923085   9923049
   48800  0.2440E-01  0.5000E-06 NODE    10815919  -0.9%  0.1809E+08  0.7362E+08  0.2293E+06  -9425.      0.8390E-02   1.227      0.1021E-01
   48900  0.2445E-01  0.5000E-06 NODE      415511  -0.9%  0.1818E+08  0.7352E+08  0.2301E+06  -9436.      0.8392E-02   1.227      0.1021E-01
   49000  0.2450E-01  0.5000E-06 NODE      408768  -0.9%  0.1826E+08  0.7344E+08  0.2318E+06  -9449.      0.8393E-02   1.227      0.1021E-01
 **WARNING MINIMUM TIME STEP   0.4271E-06 IN INTERFACE         13(DTMIN=  0.5000E-06)
   DELETE SECONDARY NODE     149023 FROM INTERFACE         13
   MAIN NODES :     159151  10818273  10818270  10818272
   49100  0.2455E-01  0.5000E-06 NODE     9923183  -0.9%  0.1835E+08  0.7334E+08  0.2314E+06  -9456.      0.8394E-02   1.227      0.1021E-01
   49200  0.2460E-01  0.5000E-06 NODE    11189558  -0.9%  0.1844E+08  0.7325E+08  0.2334E+06  -9464.      0.8395E-02   1.227      0.1021E-01
   49300  0.2465E-01  0.5000E-06 NODE    10401107  -0.9%  0.1853E+08  0.7316E+08  0.2360E+06  -9476.      0.8396E-02   1.227      0.1021E-01
   49400  0.2470E-01  0.5000E-06 NODE    10241591  -0.9%  0.1861E+08  0.7307E+08  0.2361E+06  -9481.      0.8398E-02   1.227      0.1022E-01
 **WARNING MINIMUM TIME STEP   0.4894E-06 IN INTERFACE         12(DTMIN=  0.5000E-06)
   DELETE SECONDARY NODE     312702 FROM INTERFACE         12
   MAIN NODES :     306218    306262    306264    306221
   CYCLE    TIME      TIME-STEP  ELEMENT          ERROR  I-ENERGY    K-ENERGY T  K-ENERGY R  EXT-WORK     MAS.ERR     TOTAL MASS  MASS ADDED
   49500  0.2475E-01  0.5000E-06 NODE      408768  -0.9%  0.1871E+08  0.7297E+08  0.2363E+06  -9512.      0.8400E-02   1.227      0.1022E-01
   49600  0.2480E-01  0.5000E-06 NODE    10241822  -0.9%  0.1880E+08  0.7287E+08  0.2371E+06  -9531.      0.8401E-02   1.227      0.1022E-01
 **WARNING MINIMUM TIME STEP   0.4690E-06 IN INTERFACE         12(DTMIN=  0.5000E-06)
   DELETE SECONDARY NODE    9932847 FROM INTERFACE         12
   MAIN NODES :     306218    306262    306264    306221
 **WARNING MINIMUM TIME STEP   0.3359E-06 IN INTERFACE         12(DTMIN=  0.5000E-06)
   DELETE SECONDARY NODE     312709 FROM INTERFACE         12
   MAIN NODES :     306218    306262    306264    306221
 **WARNING MINIMUM TIME STEP   0.4778E-06 IN INTERFACE         12(DTMIN=  0.5000E-06)
   DELETE SECONDARY NODE    9933806 FROM INTERFACE         12
   MAIN NODES :     306330    306318    306316    306332
   49700  0.2485E-01  0.5000E-06 NODE    10787653  -0.9%  0.1889E+08  0.7278E+08  0.2368E+06  -9546.      0.8402E-02   1.227      0.1022E-01
   49800  0.2490E-01  0.5000E-06 NODE    11189560  -0.9%  0.1898E+08  0.7268E+08  0.2381E+06  -9554.      0.8404E-02   1.227      0.1022E-01
   49900  0.2495E-01  0.5000E-06 NODE    10178938  -0.9%  0.1908E+08  0.7258E+08  0.2392E+06  -9565.      0.8405E-02   1.227      0.1023E-01
 **WARNING MINIMUM TIME STEP   0.4472E-06 IN INTERFACE         16(DTMIN=  0.5000E-06)
   DELETE SECONDARY NODE     239039 FROM INTERFACE         16
   MAIN NODES :     186109  10862233  10862235  10861117

     RESTART FILES: NEON1M11_0001_[0001-0001].rst WRITTEN
     -------------

   50000  0.2500E-01  0.5000E-06 NODE    10809417  -0.9%  0.1917E+08  0.7248E+08  0.2396E+06  -9573.      0.8406E-02   1.227      0.1023E-01
     ANIMATION FILE: NEON1M11A006 WRITTEN
 **WARNING MINIMUM TIME STEP   0.4931E-06 IN INTERFACE         13(DTMIN=  0.5000E-06)
   DELETE SECONDARY NODE     312709 FROM INTERFACE         13
   MAIN NODES :     306218    306262    306264    306221
 **WARNING MINIMUM TIME STEP   0.4931E-06 IN INTERFACE         14(DTMIN=  0.5000E-06)
   DELETE SECONDARY NODE     312709 FROM INTERFACE         14
   MAIN NODES :     306218    306262    306264    306221
   50100  0.2505E-01  0.5000E-06 NODE    10486052  -0.9%  0.1926E+08  0.7238E+08  0.2412E+06  -9584.      0.8408E-02   1.227      0.1023E-01
   50200  0.2510E-01  0.5000E-06 NODE    10396393  -1.0%  0.1936E+08  0.7228E+08  0.2420E+06  -9596.      0.8409E-02   1.227      0.1023E-01
   50300  0.2515E-01  0.5000E-06 NODE    11189560  -1.0%  0.1946E+08  0.7217E+08  0.2445E+06  -9605.      0.8411E-02   1.227      0.1023E-01
   50400  0.2520E-01  0.5000E-06 NODE    11189560  -1.0%  0.1955E+08  0.7207E+08  0.2467E+06  -9651.      0.8411E-02   1.227      0.1023E-01
   50500  0.2525E-01  0.5000E-06 NODE    11184866  -1.0%  0.1965E+08  0.7196E+08  0.2506E+06  -9672.      0.8413E-02   1.227      0.1024E-01
   50600  0.2530E-01  0.5000E-06 NODE    10013549  -1.0%  0.1975E+08  0.7185E+08  0.2557E+06  -9695.      0.8414E-02   1.227      0.1024E-01
   50700  0.2535E-01  0.5000E-06 NODE      339138  -1.0%  0.1985E+08  0.7174E+08  0.2572E+06  -9707.      0.8415E-02   1.227      0.1024E-01
   50800  0.2540E-01  0.5000E-06 NODE    10013549  -1.0%  0.1995E+08  0.7163E+08  0.2580E+06  -9716.      0.8416E-02   1.227      0.1024E-01
   50900  0.2545E-01  0.5000E-06 NODE      158294  -1.0%  0.2007E+08  0.7150E+08  0.2594E+06  -9743.      0.8417E-02   1.227      0.1024E-01
 **WARNING MINIMUM TIME STEP   0.4631E-06 IN INTERFACE         14(DTMIN=  0.5000E-06)
   DELETE SECONDARY NODE     312664 FROM INTERFACE         14
   MAIN NODES :     304306   9922167   9922165   9922166
 **WARNING MINIMUM TIME STEP   0.4227E-06 IN INTERFACE         13(DTMIN=  0.5000E-06)
   DELETE SECONDARY NODE     149072 FROM INTERFACE         13
   MAIN NODES :     159625  10817846  10819555  10819557
   51000  0.2550E-01  0.5000E-06 NODE    10406285  -1.0%  0.2018E+08  0.7139E+08  0.2609E+06  -9781.      0.8418E-02   1.227      0.1024E-01
   51100  0.2555E-01  0.5000E-06 NODE    10242742  -1.0%  0.2029E+08  0.7128E+08  0.2622E+06  -9792.      0.8419E-02   1.227      0.1024E-01
   51200  0.2560E-01  0.5000E-06 NODE      410242  -1.0%  0.2041E+08  0.7115E+08  0.2645E+06  -9819.      0.8420E-02   1.227      0.1024E-01
   51300  0.2565E-01  0.5000E-06 NODE    10243366  -1.0%  0.2051E+08  0.7104E+08  0.2661E+06  -9838.      0.8421E-02   1.227      0.1024E-01
   51400  0.2570E-01  0.5000E-06 NODE    10241391  -1.0%  0.2061E+08  0.7094E+08  0.2664E+06  -9849.      0.8422E-02   1.227      0.1025E-01
   51500  0.2575E-01  0.5000E-06 NODE    10406285  -1.0%  0.2072E+08  0.7081E+08  0.2672E+06  -9865.      0.8423E-02   1.227      0.1025E-01
 **WARNING MINIMUM TIME STEP   0.4576E-06 IN INTERFACE         14(DTMIN=  0.5000E-06)
   DELETE SECONDARY NODE    9932673 FROM INTERFACE         14
   MAIN NODES :     304307   9922168   9922165   9922167
   51600  0.2580E-01  0.5000E-06 NODE    10406280  -1.0%  0.2083E+08  0.7070E+08  0.2699E+06  -9878.      0.8424E-02   1.227      0.1025E-01
   51700  0.2585E-01  0.5000E-06 NODE    10226038  -1.0%  0.2091E+08  0.7061E+08  0.2738E+06  -9895.      0.8425E-02   1.227      0.1025E-01
   51800  0.2590E-01  0.5000E-06 NODE    11189560  -1.1%  0.2102E+08  0.7049E+08  0.2758E+06  -9915.      0.8426E-02   1.227      0.1025E-01
   51900  0.2595E-01  0.5000E-06 NODE     9923193  -1.1%  0.2112E+08  0.7038E+08  0.2779E+06  -9928.      0.8426E-02   1.227      0.1025E-01
 **WARNING MINIMUM TIME STEP   0.4601E-06 IN INTERFACE         12(DTMIN=  0.5000E-06)
   DELETE SECONDARY NODE     312959 FROM INTERFACE         12
   MAIN NODES :     306332    306316    306324    306334
   52000  0.2600E-01  0.5000E-06 NODE    10226038  -1.1%  0.2121E+08  0.7028E+08  0.2814E+06  -9937.      0.8427E-02   1.227      0.1025E-01
 **WARNING MINIMUM TIME STEP   0.4922E-06 IN INTERFACE          9(DTMIN=  0.5000E-06)
   DELETE SECONDARY NODE    9929503 FROM INTERFACE          9
   MAIN NODES :     308313  11171748  11171760  11171657
   52100  0.2605E-01  0.5000E-06 NODE    10226038  -1.1%  0.2131E+08  0.7016E+08  0.2855E+06  -9953.      0.8428E-02   1.227      0.1025E-01
   52200  0.2610E-01  0.5000E-06 NODE    10787677  -1.1%  0.2141E+08  0.7005E+08  0.2893E+06  -9975.      0.8429E-02   1.227      0.1025E-01
 **WARNING MINIMUM TIME STEP   0.4891E-06 IN INTERFACE         15(DTMIN=  0.5000E-06)
   DELETE SECONDARY NODE      39303 FROM INTERFACE         15
   MAIN NODES :      78375  10577127  10577125  10577113
 **WARNING MINIMUM TIME STEP   0.4891E-06 IN INTERFACE         16(DTMIN=  0.5000E-06)
   DELETE SECONDARY NODE      39303 FROM INTERFACE         16
   MAIN NODES :      78375  10577127  10577125  10577113
   52300  0.2615E-01  0.5000E-06 NODE    10396393  -1.1%  0.2152E+08  0.6993E+08  0.2925E+06  -9983.      0.8431E-02   1.227      0.1026E-01
 **WARNING MINIMUM TIME STEP   0.4532E-06 IN INTERFACE         13(DTMIN=  0.5000E-06)
   DELETE SECONDARY NODE     312663 FROM INTERFACE         13
   MAIN NODES :     304307   9922198   9922200   9922172
 **WARNING MINIMUM TIME STEP   0.4532E-06 IN INTERFACE         14(DTMIN=  0.5000E-06)
   DELETE SECONDARY NODE     312663 FROM INTERFACE         14
   MAIN NODES :     304307   9922198   9922200   9922172
   52400  0.2620E-01  0.5000E-06 NODE     9923193  -1.1%  0.2163E+08  0.6980E+08  0.2938E+06  -9991.      0.8432E-02   1.227      0.1026E-01
   52500  0.2625E-01  0.5000E-06 NODE     9923193  -1.1%  0.2173E+08  0.6970E+08  0.2953E+06 -0.1001E+05  0.8433E-02   1.227      0.1026E-01
   52600  0.2630E-01  0.5000E-06 NODE    11190438  -1.1%  0.2184E+08  0.6957E+08  0.2994E+06 -0.1006E+05  0.8434E-02   1.227      0.1026E-01
   52700  0.2635E-01  0.5000E-06 NODE    10242734  -1.1%  0.2196E+08  0.6945E+08  0.3042E+06 -0.1008E+05  0.8435E-02   1.227      0.1026E-01
 **WARNING MINIMUM TIME STEP   0.4525E-06 IN INTERFACE          9(DTMIN=  0.5000E-06)
   DELETE SECONDARY NODE    9932248 FROM INTERFACE          9
   MAIN NODES :     308258   9934889  11171225  11171228
 **WARNING MINIMUM TIME STEP   0.4821E-06 IN INTERFACE         12(DTMIN=  0.5000E-06)
   DELETE SECONDARY NODE    9933761 FROM INTERFACE         12
   MAIN NODES :     306332    306316    306324    306334
 **WARNING MINIMUM TIME STEP   0.4959E-06 IN INTERFACE         13(DTMIN=  0.5000E-06)
   DELETE SECONDARY NODE     149429 FROM INTERFACE         13
   MAIN NODES :     159673  10819703  10819720  10819586
   52800  0.2640E-01  0.5000E-06 NODE    11189740  -1.1%  0.2205E+08  0.6935E+08  0.3061E+06 -0.1011E+05  0.8438E-02   1.227      0.1026E-01
 **WARNING MINIMUM TIME STEP   0.4960E-06 IN INTERFACE         14(DTMIN=  0.5000E-06)
   DELETE SECONDARY NODE     150034 FROM INTERFACE         14
   MAIN NODES :     157596  10814519  10814515  10814518
 **WARNING MINIMUM TIME STEP   0.4494E-06 IN INTERFACE         13(DTMIN=  0.5000E-06)
   DELETE SECONDARY NODE    9932668 FROM INTERFACE         13
   MAIN NODES :     304308   9922172   9922200   9922203
 **WARNING MINIMUM TIME STEP   0.4494E-06 IN INTERFACE         14(DTMIN=  0.5000E-06)
   DELETE SECONDARY NODE    9932668 FROM INTERFACE         14
   MAIN NODES :     304308   9922172   9922200   9922203
   52900  0.2645E-01  0.5000E-06 NODE    11189740  -1.1%  0.2217E+08  0.6922E+08  0.3069E+06 -0.1014E+05  0.8438E-02   1.227      0.1027E-01
   53000  0.2650E-01  0.5000E-06 NODE      158928  -1.2%  0.2229E+08  0.6909E+08  0.3108E+06 -0.1017E+05  0.8439E-02   1.227      0.1027E-01
   53100  0.2655E-01  0.5000E-06 NODE    11189740  -1.2%  0.2237E+08  0.6899E+08  0.3163E+06 -0.1018E+05  0.8440E-02   1.227      0.1027E-01
 **WARNING MINIMUM TIME STEP   0.3481E-06 IN INTERFACE         13(DTMIN=  0.5000E-06)
   DELETE SECONDARY NODE   11177878 FROM INTERFACE         13
   MAIN NODES :     304182   9923111   9923110   9923107
 **WARNING MINIMUM TIME STEP   0.3481E-06 IN INTERFACE         14(DTMIN=  0.5000E-06)
   DELETE SECONDARY NODE   11177878 FROM INTERFACE         14
   MAIN NODES :     304182   9923111   9923110   9923107
   53200  0.2660E-01  0.5000E-06 NODE    10761510  -1.2%  0.2248E+08  0.6886E+08  0.3200E+06 -0.1029E+05  0.8441E-02   1.227      0.1027E-01
 **WARNING MINIMUM TIME STEP   0.4603E-06 IN INTERFACE         12(DTMIN=  0.5000E-06)
   DELETE SECONDARY NODE   11177832 FROM INTERFACE         12
   MAIN NODES :     306212    306272    306274    306215
   53300  0.2665E-01  0.5000E-06 NODE    11189740  -1.2%  0.2260E+08  0.6873E+08  0.3243E+06 -0.1031E+05  0.8442E-02   1.227      0.1027E-01
   53400  0.2670E-01  0.5000E-06 NODE    10813476  -1.2%  0.2270E+08  0.6862E+08  0.3276E+06 -0.1032E+05  0.8443E-02   1.227      0.1027E-01
 **WARNING MINIMUM TIME STEP   0.4655E-06 IN INTERFACE         12(DTMIN=  0.5000E-06)
   DELETE SECONDARY NODE    9933762 FROM INTERFACE         12
   MAIN NODES :     306332    306316    306324    306334
   53500  0.2675E-01  0.5000E-06 NODE    11189740  -1.2%  0.2280E+08  0.6850E+08  0.3328E+06 -0.1034E+05  0.8444E-02   1.227      0.1027E-01
   53600  0.2680E-01  0.5000E-06 NODE      158447  -1.2%  0.2291E+08  0.6838E+08  0.3393E+06 -0.1036E+05  0.8445E-02   1.227      0.1027E-01
   53700  0.2685E-01  0.5000E-06 NODE    10819362  -1.2%  0.2301E+08  0.6826E+08  0.3431E+06 -0.1038E+05  0.8446E-02   1.227      0.1027E-01
 **WARNING MINIMUM TIME STEP   0.4499E-06 IN INTERFACE         13(DTMIN=  0.5000E-06)
   DELETE SECONDARY NODE    9933496 FROM INTERFACE         13
   MAIN NODES :     304182   9923107   9923105   9923106
 **WARNING MINIMUM TIME STEP   0.4499E-06 IN INTERFACE         14(DTMIN=  0.5000E-06)
   DELETE SECONDARY NODE    9933496 FROM INTERFACE         14
   MAIN NODES :     304182   9923107   9923105   9923106
   53800  0.2690E-01  0.5000E-06 NODE    10813555  -1.2%  0.2312E+08  0.6814E+08  0.3477E+06 -0.1053E+05  0.8447E-02   1.227      0.1028E-01
   53900  0.2695E-01  0.5000E-06 NODE    10241373  -1.3%  0.2323E+08  0.6801E+08  0.3532E+06 -0.1055E+05  0.8448E-02   1.227      0.1028E-01
   54000  0.2700E-01  0.5000E-06 NODE    10856739  -1.3%  0.2334E+08  0.6789E+08  0.3585E+06 -0.1057E+05  0.8449E-02   1.227      0.1028E-01
   54100  0.2705E-01  0.5000E-06 NODE      415140  -1.3%  0.2345E+08  0.6776E+08  0.3632E+06 -0.1059E+05  0.8450E-02   1.227      0.1028E-01
   54200  0.2710E-01  0.5000E-06 NODE    10789300  -1.3%  0.2356E+08  0.6764E+08  0.3676E+06 -0.1061E+05  0.8451E-02   1.227      0.1028E-01
 **WARNING MINIMUM TIME STEP   0.4397E-06 IN INTERFACE         14(DTMIN=  0.5000E-06)
   DELETE SECONDARY NODE     150642 FROM INTERFACE         14
   MAIN NODES :     158185  10811772  10811770  10811768
   54300  0.2715E-01  0.5000E-06 NODE    10240114  -1.3%  0.2367E+08  0.6752E+08  0.3724E+06 -0.1063E+05  0.8452E-02   1.227      0.1028E-01
   54400  0.2720E-01  0.5000E-06 NODE    10242739  -1.3%  0.2379E+08  0.6738E+08  0.3777E+06 -0.1070E+05  0.8453E-02   1.227      0.1028E-01
 **WARNING MINIMUM TIME STEP   0.4764E-06 IN INTERFACE         13(DTMIN=  0.5000E-06)
   DELETE SECONDARY NODE    9932663 FROM INTERFACE         13
   MAIN NODES :     304316   9922207   9922235   9922238
 **WARNING MINIMUM TIME STEP   0.4764E-06 IN INTERFACE         14(DTMIN=  0.5000E-06)
   DELETE SECONDARY NODE    9932663 FROM INTERFACE         14
   MAIN NODES :     304316   9922207   9922235   9922238
   54500  0.2725E-01  0.5000E-06 NODE      418092  -1.3%  0.2390E+08  0.6726E+08  0.3825E+06 -0.1073E+05  0.8454E-02   1.227      0.1029E-01
   54600  0.2730E-01  0.5000E-06 NODE    10241370  -1.3%  0.2400E+08  0.6715E+08  0.3877E+06 -0.1076E+05  0.8455E-02   1.227      0.1029E-01
   54700  0.2735E-01  0.5000E-06 NODE    10241333  -1.3%  0.2412E+08  0.6701E+08  0.3951E+06 -0.1081E+05  0.8456E-02   1.227      0.1029E-01
   54800  0.2740E-01  0.5000E-06 NODE    10243920  -1.3%  0.2424E+08  0.6687E+08  0.4020E+06 -0.1086E+05  0.8457E-02   1.227      0.1029E-01
 **WARNING MINIMUM TIME STEP   0.4735E-06 IN INTERFACE         12(DTMIN=  0.5000E-06)
   DELETE SECONDARY NODE   11177971 FROM INTERFACE         12
   MAIN NODES :     306344    306336    306332    306334
   54900  0.2745E-01  0.5000E-06 NODE    11189740  -1.4%  0.2434E+08  0.6675E+08  0.4051E+06 -0.1092E+05  0.8458E-02   1.227      0.1029E-01
   CYCLE    TIME      TIME-STEP  ELEMENT          ERROR  I-ENERGY    K-ENERGY T  K-ENERGY R  EXT-WORK     MAS.ERR     TOTAL MASS  MASS ADDED
   55000  0.2750E-01  0.5000E-06 NODE    10242734  -1.4%  0.2446E+08  0.6662E+08  0.4097E+06 -0.1098E+05  0.8459E-02   1.227      0.1029E-01
   55100  0.2755E-01  0.5000E-06 NODE    11189740  -1.4%  0.2459E+08  0.6647E+08  0.4124E+06 -0.1103E+05  0.8460E-02   1.227      0.1029E-01
   55200  0.2760E-01  0.5000E-06 NODE    10243920  -1.4%  0.2470E+08  0.6635E+08  0.4171E+06 -0.1108E+05  0.8461E-02   1.227      0.1029E-01
 **WARNING MINIMUM TIME STEP   0.4926E-06 IN INTERFACE          9(DTMIN=  0.5000E-06)
   DELETE SECONDARY NODE    9927068 FROM INTERFACE          9
   MAIN NODES :     308466  11173143  11173150  11173052
   55300  0.2765E-01  0.5000E-06 NODE    10243920  -1.4%  0.2481E+08  0.6622E+08  0.4215E+06 -0.1112E+05  0.8462E-02   1.227      0.1030E-01
 **WARNING MINIMUM TIME STEP   0.1952E-06 IN INTERFACE         13(DTMIN=  0.5000E-06)
   DELETE SECONDARY NODE     306358 FROM INTERFACE         13
   MAIN NODES :     309047   9926027   9926025   9926026
   55400  0.2770E-01  0.5000E-06 NODE    10243393  -1.4%  0.2494E+08  0.6607E+08  0.4260E+06 -0.1120E+05  0.8467E-02   1.227      0.1030E-01
 **WARNING MINIMUM TIME STEP   0.3664E-06 IN INTERFACE         12(DTMIN=  0.5000E-06)
   DELETE SECONDARY NODE     311707 FROM INTERFACE         12
   MAIN NODES :     306425    306404    306405    306426
   55500  0.2775E-01  0.5000E-06 NODE    10758708  -1.4%  0.2506E+08  0.6593E+08  0.4282E+06 -0.1126E+05  0.8467E-02   1.227      0.1030E-01
 **WARNING MINIMUM TIME STEP   0.3245E-06 IN INTERFACE          9(DTMIN=  0.5000E-06)
   DELETE SECONDARY NODE     312614 FROM INTERFACE          9
   MAIN NODES :     308259   9934894  11171240  11171243
   55600  0.2780E-01  0.5000E-06 NODE      415156  -1.5%  0.2517E+08  0.6581E+08  0.4296E+06 -0.1133E+05  0.8468E-02   1.227      0.1030E-01
 **WARNING MINIMUM TIME STEP   0.2837E-06 IN INTERFACE          9(DTMIN=  0.5000E-06)
   DELETE SECONDARY NODE    9932508 FROM INTERFACE          9
   MAIN NODES :     308259  11171243  11171260   9934899
 **WARNING MINIMUM TIME STEP   0.4629E-06 IN INTERFACE          9(DTMIN=  0.5000E-06)
   DELETE SECONDARY NODE    9932557 FROM INTERFACE          9
   MAIN NODES :     308314  11171658  11171655  11171657
   55700  0.2785E-01  0.5000E-06 NODE    10244445  -1.5%  0.2531E+08  0.6566E+08  0.4320E+06 -0.1136E+05  0.8469E-02   1.227      0.1030E-01
   55800  0.2790E-01  0.5000E-06 NODE    10244445  -1.5%  0.2544E+08  0.6550E+08  0.4367E+06 -0.1140E+05  0.8470E-02   1.227      0.1030E-01
 **WARNING MINIMUM TIME STEP   0.4947E-06 IN INTERFACE         13(DTMIN=  0.5000E-06)
   DELETE SECONDARY NODE     311707 FROM INTERFACE         13
   MAIN NODES :     306425    306404    306405    306426
   55900  0.2795E-01  0.5000E-06 NODE      158635  -1.5%  0.2555E+08  0.6538E+08  0.4405E+06 -0.1141E+05  0.8471E-02   1.227      0.1031E-01
 **WARNING MINIMUM TIME STEP   0.2025E-06 IN INTERFACE         14(DTMIN=  0.5000E-06)
   DELETE SECONDARY NODE     306270 FROM INTERFACE         14
   MAIN NODES :     312608   9932453   9932450   9932452
   56000  0.2800E-01  0.5000E-06 NODE    10256952  -1.5%  0.2568E+08  0.6523E+08  0.4438E+06 -0.1156E+05  0.8474E-02   1.227      0.1031E-01
   56100  0.2805E-01  0.5000E-06 NODE    10244447  -1.5%  0.2583E+08  0.6507E+08  0.4484E+06 -0.1159E+05  0.8475E-02   1.227      0.1031E-01
   56200  0.2810E-01  0.5000E-06 NODE    10811683  -1.5%  0.2595E+08  0.6493E+08  0.4501E+06 -0.1162E+05  0.8476E-02   1.227      0.1031E-01
 **WARNING MINIMUM TIME STEP   0.4601E-06 IN INTERFACE         12(DTMIN=  0.5000E-06)
   DELETE SECONDARY NODE    9932507 FROM INTERFACE         12
   MAIN NODES :     306271    306270    306268    306269
   56300  0.2815E-01  0.5000E-06 NODE      410263  -1.6%  0.2607E+08  0.6480E+08  0.4516E+06 -0.1165E+05  0.8478E-02   1.227      0.1031E-01
 **WARNING MINIMUM TIME STEP   0.4881E-06 IN INTERFACE          9(DTMIN=  0.5000E-06)
   DELETE SECONDARY NODE    9932512 FROM INTERFACE          9
   MAIN NODES :     308269  11171262  11171260  11171243
 **WARNING MINIMUM TIME STEP   0.4514E-06 IN INTERFACE         13(DTMIN=  0.5000E-06)
   DELETE SECONDARY NODE     312662 FROM INTERFACE         13
   MAIN NODES :     304315   9922207   9922205   9922203
 **WARNING MINIMUM TIME STEP   0.4514E-06 IN INTERFACE         14(DTMIN=  0.5000E-06)
   DELETE SECONDARY NODE     312662 FROM INTERFACE         14
   MAIN NODES :     304315   9922207   9922205   9922203
   56400  0.2820E-01  0.5000E-06 NODE    10816340  -1.6%  0.2622E+08  0.6463E+08  0.4525E+06 -0.1169E+05  0.8479E-02   1.227      0.1031E-01
   56500  0.2825E-01  0.5000E-06 NODE    10789222  -1.6%  0.2636E+08  0.6447E+08  0.4546E+06 -0.1176E+05  0.8480E-02   1.227      0.1032E-01
 **WARNING MINIMUM TIME STEP   0.4024E-06 IN INTERFACE          9(DTMIN=  0.5000E-06)
   DELETE SECONDARY NODE    9932505 FROM INTERFACE          9
   MAIN NODES :     308259  11171243  11171260   9934899
   56600  0.2830E-01  0.5000E-06 NODE      415486  -1.6%  0.2649E+08  0.6433E+08  0.4555E+06 -0.1181E+05  0.8481E-02   1.227      0.1032E-01
 **WARNING MINIMUM TIME STEP   0.4532E-06 IN INTERFACE          9(DTMIN=  0.5000E-06)
   DELETE SECONDARY NODE    9932502 FROM INTERFACE          9
   MAIN NODES :     308259   9934894  11171240  11171243
   56700  0.2835E-01  0.5000E-06 NODE      415511  -1.6%  0.2663E+08  0.6418E+08  0.4555E+06 -0.1185E+05  0.8482E-02   1.227      0.1032E-01
 **WARNING MINIMUM TIME STEP   0.3892E-06 IN INTERFACE         13(DTMIN=  0.5000E-06)
   DELETE SECONDARY NODE     312896 FROM INTERFACE         13
   MAIN NODES :     304199   9923177   9923180   9923183
 **WARNING MINIMUM TIME STEP   0.3892E-06 IN INTERFACE         14(DTMIN=  0.5000E-06)
   DELETE SECONDARY NODE     312896 FROM INTERFACE         14
   MAIN NODES :     304199   9923177   9923180   9923183
   56800  0.2840E-01  0.5000E-06 NODE    10784573  -1.6%  0.2676E+08  0.6403E+08  0.4549E+06 -0.1191E+05  0.8483E-02   1.227      0.1032E-01
 **WARNING MINIMUM TIME STEP   0.4576E-06 IN INTERFACE          9(DTMIN=  0.5000E-06)
   DELETE SECONDARY NODE    9932503 FROM INTERFACE          9
   MAIN NODES :     308259   9934893   9934890   9934894
 **WARNING MINIMUM TIME STEP   0.3713E-06 IN INTERFACE          9(DTMIN=  0.5000E-06)
   DELETE SECONDARY NODE    9932503 FROM INTERFACE          9
   MAIN NODES :     308259   9934894   9934890   9934893
   56900  0.2845E-01  0.5000E-06 NODE      415511  -1.6%  0.2691E+08  0.6387E+08  0.4548E+06 -0.1194E+05  0.8485E-02   1.227      0.1032E-01
   57000  0.2850E-01  0.5000E-06 NODE    10242906  -1.7%  0.2706E+08  0.6370E+08  0.4560E+06 -0.1199E+05  0.8486E-02   1.227      0.1032E-01
   57100  0.2855E-01  0.5000E-06 NODE    11105943  -1.7%  0.2718E+08  0.6356E+08  0.4575E+06 -0.1203E+05  0.8487E-02   1.227      0.1032E-01
   57200  0.2860E-01  0.5000E-06 NODE      415511  -1.7%  0.2732E+08  0.6341E+08  0.4608E+06 -0.1209E+05  0.8488E-02   1.227      0.1033E-01
   57300  0.2865E-01  0.5000E-06 NODE      415511  -1.7%  0.2749E+08  0.6324E+08  0.4609E+06 -0.1213E+05  0.8489E-02   1.227      0.1033E-01
   57400  0.2870E-01  0.5000E-06 NODE    10242906  -1.7%  0.2762E+08  0.6309E+08  0.4601E+06 -0.1217E+05  0.8490E-02   1.227      0.1033E-01
   57500  0.2875E-01  0.5000E-06 NODE    10242906  -1.7%  0.2777E+08  0.6293E+08  0.4597E+06 -0.1222E+05  0.8491E-02   1.227      0.1033E-01
   57600  0.2880E-01  0.5000E-06 NODE      415511  -1.7%  0.2791E+08  0.6277E+08  0.4599E+06 -0.1228E+05  0.8492E-02   1.227      0.1033E-01
 **WARNING MINIMUM TIME STEP   0.4547E-06 IN INTERFACE         12(DTMIN=  0.5000E-06)
   DELETE SECONDARY NODE     312558 FROM INTERFACE         12
   MAIN NODES :     306270    306209    306206    306268
   57700  0.2885E-01  0.5000E-06 NODE    10811664  -1.8%  0.2805E+08  0.6261E+08  0.4616E+06 -0.1234E+05  0.8494E-02   1.227      0.1033E-01
 **WARNING MINIMUM TIME STEP   0.2568E-06 IN INTERFACE         14(DTMIN=  0.5000E-06)
   DELETE SECONDARY NODE     306274 FROM INTERFACE         14
   MAIN NODES :     312636   9932617   9932615   9932616
   57800  0.2890E-01  0.5000E-06 NODE      415511  -1.8%  0.2821E+08  0.6244E+08  0.4638E+06 -0.1240E+05  0.8495E-02   1.227      0.1034E-01
   57900  0.2895E-01  0.5000E-06 NODE      415511  -1.8%  0.2835E+08  0.6228E+08  0.4648E+06 -0.1245E+05  0.8497E-02   1.227      0.1034E-01
   58000  0.2900E-01  0.5000E-06 NODE      415511  -1.8%  0.2849E+08  0.6213E+08  0.4633E+06 -0.1251E+05  0.8498E-02   1.227      0.1034E-01
 **WARNING MINIMUM TIME STEP   0.3619E-06 IN INTERFACE          9(DTMIN=  0.5000E-06)
   DELETE SECONDARY NODE    9932253 FROM INTERFACE          9
   MAIN NODES :     308258   9934888   9934890   9934894
 **WARNING MINIMUM TIME STEP   0.4458E-06 IN INTERFACE          9(DTMIN=  0.5000E-06)
   DELETE SECONDARY NODE    9932253 FROM INTERFACE          9
   MAIN NODES :     308258  11171228  11171240   9934894
 **WARNING MINIMUM TIME STEP   0.4458E-06 IN INTERFACE          9(DTMIN=  0.5000E-06)
   DELETE SECONDARY NODE    9932253 FROM INTERFACE          9
   MAIN NODES :     308258   9934894   9934890   9934888
 **WARNING MINIMUM TIME STEP   0.4911E-06 IN INTERFACE          9(DTMIN=  0.5000E-06)
   DELETE SECONDARY NODE     312558 FROM INTERFACE          9
   MAIN NODES :     308258  11171228  11171240   9934894
   58100  0.2905E-01  0.5000E-06 NODE    10244992  -1.8%  0.2866E+08  0.6195E+08  0.4654E+06 -0.1258E+05  0.8499E-02   1.227      0.1034E-01
   58200  0.2910E-01  0.5000E-06 NODE      415511  -1.8%  0.2881E+08  0.6178E+08  0.4654E+06 -0.1268E+05  0.8500E-02   1.227      0.1034E-01
   58300  0.2915E-01  0.5000E-06 NODE    10254475  -1.9%  0.2895E+08  0.6163E+08  0.4649E+06 -0.1276E+05  0.8501E-02   1.227      0.1034E-01
   58400  0.2920E-01  0.5000E-06 NODE    10013549  -1.9%  0.2912E+08  0.6145E+08  0.4655E+06 -0.1284E+05  0.8502E-02   1.227      0.1034E-01
 **WARNING MINIMUM TIME STEP   0.4451E-06 IN INTERFACE          9(DTMIN=  0.5000E-06)
   DELETE SECONDARY NODE     312557 FROM INTERFACE          9
   MAIN NODES :     308258   9934889  11171225  11171228
 **WARNING MINIMUM TIME STEP   0.4780E-06 IN INTERFACE         12(DTMIN=  0.5000E-06)
   DELETE SECONDARY NODE    9932848 FROM INTERFACE         12
   MAIN NODES :     306218    306262    306264    306221
   58500  0.2925E-01  0.5000E-06 NODE    10254587  -1.9%  0.2928E+08  0.6127E+08  0.4643E+06 -0.1296E+05  0.8504E-02   1.227      0.1035E-01
 **WARNING MINIMUM TIME STEP   0.2062E-06 IN INTERFACE         13(DTMIN=  0.5000E-06)
   DELETE SECONDARY NODE     306224 FROM INTERFACE         13
   MAIN NODES :     311510   9929538   9929535   9929537
 **WARNING MINIMUM TIME STEP   0.2062E-06 IN INTERFACE         14(DTMIN=  0.5000E-06)
   DELETE SECONDARY NODE     306224 FROM INTERFACE         14
   MAIN NODES :     311510   9929538   9929535   9929537
   58600  0.2930E-01  0.5000E-06 NODE    10254547  -1.9%  0.2945E+08  0.6108E+08  0.4643E+06 -0.1308E+05  0.8507E-02   1.227      0.1035E-01
   58700  0.2935E-01  0.5000E-06 NODE    11189740  -1.9%  0.2961E+08  0.6090E+08  0.4621E+06 -0.1319E+05  0.8509E-02   1.227      0.1035E-01
   58800  0.2940E-01  0.5000E-06 NODE    10242327  -1.9%  0.2977E+08  0.6073E+08  0.4622E+06 -0.1328E+05  0.8510E-02   1.227      0.1035E-01
   58900  0.2945E-01  0.5000E-06 NODE    10242327  -2.0%  0.2995E+08  0.6054E+08  0.4623E+06 -0.1338E+05  0.8511E-02   1.227      0.1035E-01
 **WARNING MINIMUM TIME STEP   0.4958E-06 IN INTERFACE          9(DTMIN=  0.5000E-06)
   DELETE SECONDARY NODE    9932243 FROM INTERFACE          9
   MAIN NODES :     308257  11171213  11171225   9934889
   59000  0.2950E-01  0.5000E-06 NODE    11190362  -2.0%  0.3012E+08  0.6035E+08  0.4604E+06 -0.1346E+05  0.8512E-02   1.227      0.1036E-01
   59100  0.2955E-01  0.5000E-06 NODE    10811564  -2.0%  0.3027E+08  0.6019E+08  0.4589E+06 -0.1356E+05  0.8514E-02   1.227      0.1036E-01
   59200  0.2960E-01  0.5000E-06 NODE    10398797  -2.0%  0.3046E+08  0.5999E+08  0.4589E+06 -0.1371E+05  0.8515E-02   1.227      0.1036E-01
   59300  0.2965E-01  0.5000E-06 NODE    10241507  -2.0%  0.3064E+08  0.5980E+08  0.4601E+06 -0.1388E+05  0.8516E-02   1.227      0.1036E-01
   59400  0.2970E-01  0.5000E-06 NODE      304200  -2.0%  0.3079E+08  0.5963E+08  0.4590E+06 -0.1406E+05  0.8518E-02   1.227      0.1036E-01
   59500  0.2975E-01  0.5000E-06 NODE      150378  -2.0%  0.3097E+08  0.5944E+08  0.4581E+06 -0.1424E+05  0.8519E-02   1.227      0.1036E-01
 **WARNING MINIMUM TIME STEP   0.4300E-06 IN INTERFACE         14(DTMIN=  0.5000E-06)
   DELETE SECONDARY NODE     240100 FROM INTERFACE         14
   MAIN NODES :     183570  10855033  10855030  10855032
   59600  0.2980E-01  0.5000E-06 NODE    10240129  -2.1%  0.3116E+08  0.5922E+08  0.4624E+06 -0.1441E+05  0.8521E-02   1.227      0.1037E-01
 **WARNING MINIMUM TIME STEP   0.3782E-06 IN INTERFACE         13(DTMIN=  0.5000E-06)
   DELETE SECONDARY NODE    9933493 FROM INTERFACE         13
   MAIN NODES :     304200   9923183   9923180   9923182
 **WARNING MINIMUM TIME STEP   0.3782E-06 IN INTERFACE         14(DTMIN=  0.5000E-06)
   DELETE SECONDARY NODE    9933493 FROM INTERFACE         14
   MAIN NODES :     304200   9923183   9923180   9923182
   59700  0.2985E-01  0.5000E-06 NODE    11111511  -2.1%  0.3132E+08  0.5905E+08  0.4622E+06 -0.1463E+05  0.8522E-02   1.227      0.1037E-01
   59800  0.2990E-01  0.5000E-06 NODE    10398800  -2.1%  0.3149E+08  0.5887E+08  0.4619E+06 -0.1490E+05  0.8523E-02   1.227      0.1037E-01
 **WARNING MINIMUM TIME STEP   0.4718E-06 IN INTERFACE         13(DTMIN=  0.5000E-06)
   DELETE SECONDARY NODE    9936649 FROM INTERFACE         13
   MAIN NODES :     304182   9923107   9923105   9923106
 **WARNING MINIMUM TIME STEP   0.4730E-06 IN INTERFACE         13(DTMIN=  0.5000E-06)
   DELETE SECONDARY NODE    9936649 FROM INTERFACE         13
   MAIN NODES :     304182   9923111   9923110   9923107
 **WARNING MINIMUM TIME STEP   0.4718E-06 IN INTERFACE         14(DTMIN=  0.5000E-06)
   DELETE SECONDARY NODE    9936649 FROM INTERFACE         14
   MAIN NODES :     304182   9923107   9923105   9923106
 **WARNING MINIMUM TIME STEP   0.4730E-06 IN INTERFACE         14(DTMIN=  0.5000E-06)
   DELETE SECONDARY NODE    9936649 FROM INTERFACE         14
   MAIN NODES :     304182   9923111   9923110   9923107
   59900  0.2995E-01  0.5000E-06 NODE    10808397  -2.1%  0.3168E+08  0.5866E+08  0.4642E+06 -0.1522E+05  0.8525E-02   1.227      0.1037E-01
   60000  0.3000E-01  0.5000E-06 NODE      414861  -2.1%  0.3187E+08  0.5846E+08  0.4648E+06 -0.1556E+05  0.8526E-02   1.227      0.1037E-01
     ANIMATION FILE: NEON1M11A007 WRITTEN
   60100  0.3005E-01  0.5000E-06 NODE    11189740  -2.1%  0.3204E+08  0.5829E+08  0.4633E+06 -0.1590E+05  0.8527E-02   1.227      0.1037E-01
   60200  0.3010E-01  0.5000E-06 NODE    10013549  -2.1%  0.3223E+08  0.5808E+08  0.4631E+06 -0.1613E+05  0.8528E-02   1.227      0.1038E-01
   60300  0.3015E-01  0.5000E-06 NODE      414861  -2.2%  0.3243E+08  0.5787E+08  0.4647E+06 -0.1630E+05  0.8530E-02   1.227      0.1038E-01
 **WARNING MINIMUM TIME STEP   0.4851E-06 IN INTERFACE         13(DTMIN=  0.5000E-06)
   DELETE SECONDARY NODE     153959 FROM INTERFACE         13
   MAIN NODES :     172368  10829088  10829085  10829087
   60400  0.3020E-01  0.5000E-06 NODE      158433  -2.2%  0.3259E+08  0.5769E+08  0.4673E+06 -0.1647E+05  0.8532E-02   1.227      0.1038E-01
   CYCLE    TIME      TIME-STEP  ELEMENT          ERROR  I-ENERGY    K-ENERGY T  K-ENERGY R  EXT-WORK     MAS.ERR     TOTAL MASS  MASS ADDED
   60500  0.3025E-01  0.5000E-06 NODE    10244445  -2.2%  0.3276E+08  0.5751E+08  0.4670E+06 -0.1673E+05  0.8533E-02   1.227      0.1038E-01
   60600  0.3030E-01  0.5000E-06 NODE    10243413  -2.2%  0.3296E+08  0.5730E+08  0.4675E+06 -0.1701E+05  0.8534E-02   1.227      0.1038E-01
 **WARNING MINIMUM TIME STEP   0.4961E-06 IN INTERFACE         13(DTMIN=  0.5000E-06)
   DELETE SECONDARY NODE     312895 FROM INTERFACE         13
   MAIN NODES :     304182   9923107   9923105   9923106
 **WARNING MINIMUM TIME STEP   0.4961E-06 IN INTERFACE         14(DTMIN=  0.5000E-06)
   DELETE SECONDARY NODE     312895 FROM INTERFACE         14
   MAIN NODES :     304182   9923107   9923105   9923106
   60700  0.3035E-01  0.5000E-06 NODE      413427  -2.2%  0.3313E+08  0.5710E+08  0.4670E+06 -0.1720E+05  0.8535E-02   1.227      0.1038E-01
   60800  0.3040E-01  0.5000E-06 NODE      158472  -2.2%  0.3329E+08  0.5692E+08  0.4687E+06 -0.1736E+05  0.8536E-02   1.227      0.1038E-01
   60900  0.3045E-01  0.5000E-06 NODE      153694  -2.2%  0.3349E+08  0.5672E+08  0.4681E+06 -0.1752E+05  0.8536E-02   1.227      0.1038E-01
 **WARNING MINIMUM TIME STEP   0.4214E-06 IN INTERFACE         12(DTMIN=  0.5000E-06)
   DELETE SECONDARY NODE     311633 FROM INTERFACE         12
   MAIN NODES :     306356    306357    306372    306371
 **WARNING MINIMUM TIME STEP   0.4242E-06 IN INTERFACE         15(DTMIN=  0.5000E-06)
   DELETE SECONDARY NODE     238130 FROM INTERFACE         15
   MAIN NODES :     245632  11044768  11044795  11044792
   61000  0.3050E-01  0.5000E-06 NODE    11190634  -2.3%  0.3367E+08  0.5652E+08  0.4704E+06 -0.1769E+05  0.8538E-02   1.227      0.1039E-01
 **WARNING MINIMUM TIME STEP   0.3682E-06 IN INTERFACE         13(DTMIN=  0.5000E-06)
   DELETE SECONDARY NODE     312897 FROM INTERFACE         13
   MAIN NODES :     304200   9923183   9923180   9923182
 **WARNING MINIMUM TIME STEP   0.3682E-06 IN INTERFACE         14(DTMIN=  0.5000E-06)
   DELETE SECONDARY NODE     312897 FROM INTERFACE         14
   MAIN NODES :     304200   9923183   9923180   9923182
   61100  0.3055E-01  0.5000E-06 NODE    10398740  -2.3%  0.3384E+08  0.5633E+08  0.4738E+06 -0.1790E+05  0.8539E-02   1.227      0.1039E-01
 **WARNING MINIMUM TIME STEP   0.4972E-06 IN INTERFACE         13(DTMIN=  0.5000E-06)
   DELETE SECONDARY NODE     311633 FROM INTERFACE         13
   MAIN NODES :     306356    306357    306372    306371
   61200  0.3060E-01  0.5000E-06 NODE    10789472  -2.3%  0.3402E+08  0.5614E+08  0.4738E+06 -0.1812E+05  0.8540E-02   1.227      0.1039E-01
 **WARNING MINIMUM TIME STEP   0.4895E-06 IN INTERFACE         13(DTMIN=  0.5000E-06)
   DELETE SECONDARY NODE    9933497 FROM INTERFACE         13
   MAIN NODES :     304183   9923116   9923115   9923112
 **WARNING MINIMUM TIME STEP   0.4895E-06 IN INTERFACE         14(DTMIN=  0.5000E-06)
   DELETE SECONDARY NODE    9933497 FROM INTERFACE         14
   MAIN NODES :     304183   9923116   9923115   9923112
   61300  0.3065E-01  0.5000E-06 NODE      414916  -2.3%  0.3422E+08  0.5592E+08  0.4753E+06 -0.1833E+05  0.8541E-02   1.227      0.1039E-01
   61400  0.3070E-01  0.5000E-06 NODE    10242830  -2.3%  0.3440E+08  0.5572E+08  0.4751E+06 -0.1852E+05  0.8542E-02   1.227      0.1039E-01
   61500  0.3075E-01  0.5000E-06 NODE      150740  -2.3%  0.3458E+08  0.5553E+08  0.4756E+06 -0.1866E+05  0.8543E-02   1.227      0.1039E-01
   61600  0.3080E-01  0.5000E-06 NODE    10243413  -2.4%  0.3477E+08  0.5532E+08  0.4769E+06 -0.1880E+05  0.8545E-02   1.227      0.1040E-01
 **WARNING MINIMUM TIME STEP   0.3352E-06 IN INTERFACE         12(DTMIN=  0.5000E-06)
   DELETE SECONDARY NODE     311709 FROM INTERFACE         12
   MAIN NODES :     306462    306404    306425    306480
 **WARNING MINIMUM TIME STEP   0.4867E-06 IN INTERFACE         12(DTMIN=  0.5000E-06)
   DELETE SECONDARY NODE     311702 FROM INTERFACE         12
   MAIN NODES :     306462    306404    306425    306480
   61700  0.3085E-01  0.5000E-06 NODE      149505  -2.4%  0.3496E+08  0.5511E+08  0.4783E+06 -0.1888E+05  0.8546E-02   1.227      0.1040E-01
 **WARNING MINIMUM TIME STEP   0.4676E-06 IN INTERFACE         12(DTMIN=  0.5000E-06)
   DELETE SECONDARY NODE    9930287 FROM INTERFACE         12
   MAIN NODES :     306462    306404    306425    306480
 **WARNING MINIMUM TIME STEP   0.4843E-06 IN INTERFACE         13(DTMIN=  0.5000E-06)
   DELETE SECONDARY NODE     311709 FROM INTERFACE         13
   MAIN NODES :     306462    306404    306425    306480
 **WARNING MINIMUM TIME STEP   0.3611E-06 IN INTERFACE         13(DTMIN=  0.5000E-06)
   DELETE SECONDARY NODE    9933498 FROM INTERFACE         13
   MAIN NODES :     304184   9923182   9923180   9923117
 **WARNING MINIMUM TIME STEP   0.3611E-06 IN INTERFACE         14(DTMIN=  0.5000E-06)
   DELETE SECONDARY NODE    9933498 FROM INTERFACE         14
   MAIN NODES :     304184   9923182   9923180   9923117
   61800  0.3090E-01  0.5000E-06 NODE    10244075  -2.4%  0.3514E+08  0.5491E+08  0.4773E+06 -0.1900E+05  0.8547E-02   1.227      0.1040E-01
   61900  0.3095E-01  0.5000E-06 NODE    10813527  -2.4%  0.3532E+08  0.5471E+08  0.4757E+06 -0.1914E+05  0.8548E-02   1.227      0.1040E-01
   62000  0.3100E-01  0.5000E-06 NODE    10811530  -2.4%  0.3553E+08  0.5449E+08  0.4730E+06 -0.1930E+05  0.8549E-02   1.227      0.1040E-01
 **WARNING MINIMUM TIME STEP   0.4303E-06 IN INTERFACE          9(DTMIN=  0.5000E-06)
   DELETE SECONDARY NODE    9932722 FROM INTERFACE          9
   MAIN NODES :     308890  11174042  11174060   9936417
 **WARNING MINIMUM TIME STEP   0.4430E-06 IN INTERFACE          9(DTMIN=  0.5000E-06)
   DELETE SECONDARY NODE    9929988 FROM INTERFACE          9
   MAIN NODES :     308466  11173143  11173150  11173052
 **WARNING MINIMUM TIME STEP   0.4498E-06 IN INTERFACE          9(DTMIN=  0.5000E-06)
   DELETE SECONDARY NODE     311628 FROM INTERFACE          9
   MAIN NODES :     308477  11173152  11173150  11173143
   62100  0.3105E-01  0.5000E-06 NODE    10239564  -2.5%  0.3572E+08  0.5428E+08  0.4742E+06 -0.1950E+05  0.8551E-02   1.227      0.1040E-01
 **WARNING MINIMUM TIME STEP   0.3206E-06 IN INTERFACE          9(DTMIN=  0.5000E-06)
   DELETE SECONDARY NODE     311627 FROM INTERFACE          9
   MAIN NODES :     308466  11173143  11173150  11173052
 **WARNING MINIMUM TIME STEP   0.4539E-06 IN INTERFACE          9(DTMIN=  0.5000E-06)
   DELETE SECONDARY NODE    9929989 FROM INTERFACE          9
   MAIN NODES :     308466  11173143  11173150  11173052
 **WARNING MINIMUM TIME STEP   0.3270E-06 IN INTERFACE          9(DTMIN=  0.5000E-06)
   DELETE SECONDARY NODE     311630 FROM INTERFACE          9
   MAIN NODES :     308488  11173243  11173240  11173242
   62200  0.3110E-01  0.5000E-06 NODE    10787970  -2.5%  0.3590E+08  0.5408E+08  0.4751E+06 -0.1973E+05  0.8553E-02   1.227      0.1040E-01
 **WARNING MINIMUM TIME STEP   0.4764E-06 IN INTERFACE         13(DTMIN=  0.5000E-06)
   DELETE SECONDARY NODE    9933500 FROM INTERFACE         13
   MAIN NODES :     304183   9923111   9923210   9923213
 **WARNING MINIMUM TIME STEP   0.4764E-06 IN INTERFACE         14(DTMIN=  0.5000E-06)
   DELETE SECONDARY NODE    9933500 FROM INTERFACE         14
   MAIN NODES :     304183   9923111   9923210   9923213
   62300  0.3115E-01  0.5000E-06 NODE    10242325  -2.5%  0.3608E+08  0.5388E+08  0.4738E+06 -0.2001E+05  0.8554E-02   1.227      0.1041E-01
   62400  0.3120E-01  0.5000E-06 NODE    10254539  -2.5%  0.3628E+08  0.5366E+08  0.4738E+06 -0.2027E+05  0.8555E-02   1.227      0.1041E-01
 **WARNING MINIMUM TIME STEP   0.4700E-06 IN INTERFACE         14(DTMIN=  0.5000E-06)
   DELETE SECONDARY NODE     150140 FROM INTERFACE         14
   MAIN NODES :     157776  10814177  10814175  10814173
   62500  0.3125E-01  0.5000E-06 NODE    10242326  -2.5%  0.3648E+08  0.5344E+08  0.4727E+06 -0.2047E+05  0.8556E-02   1.227      0.1041E-01
 **WARNING MINIMUM TIME STEP   0.4594E-06 IN INTERFACE          9(DTMIN=  0.5000E-06)
   DELETE SECONDARY NODE     311629 FROM INTERFACE          9
   MAIN NODES :     308477  11173142  11173240  11173243
   62600  0.3130E-01  0.5000E-06 NODE    10255355  -2.6%  0.3666E+08  0.5325E+08  0.4704E+06 -0.2066E+05  0.8558E-02   1.227      0.1041E-01
 **WARNING MINIMUM TIME STEP   0.3325E-06 IN INTERFACE         14(DTMIN=  0.5000E-06)
   DELETE SECONDARY NODE     306320 FROM INTERFACE         14
   MAIN NODES :     312972   9933936   9933935   9933939
   62700  0.3135E-01  0.5000E-06 NODE    10242326  -2.6%  0.3685E+08  0.5304E+08  0.4681E+06 -0.2083E+05  0.8560E-02   1.227      0.1041E-01
   62800  0.3140E-01  0.5000E-06 NODE    10252439  -2.6%  0.3705E+08  0.5282E+08  0.4699E+06 -0.2111E+05  0.8560E-02   1.227      0.1041E-01
   62900  0.3145E-01  0.5000E-06 NODE    10242326  -2.6%  0.3724E+08  0.5261E+08  0.4723E+06 -0.2152E+05  0.8561E-02   1.227      0.1042E-01
 **WARNING MINIMUM TIME STEP   0.4604E-06 IN INTERFACE         17(DTMIN=  0.5000E-06)
   DELETE SECONDARY NODE      34784 FROM INTERFACE         17
   MAIN NODES :     126598  10720406  10720405  10720402
   63000  0.3150E-01  0.5000E-06 NODE    10242326  -2.6%  0.3743E+08  0.5240E+08  0.4704E+06 -0.2188E+05  0.8562E-02   1.227      0.1042E-01
   63100  0.3155E-01  0.5000E-06 NODE    10242326  -2.7%  0.3761E+08  0.5220E+08  0.4702E+06 -0.2212E+05  0.8563E-02   1.227      0.1042E-01
   63200  0.3160E-01  0.5000E-06 NODE    10242326  -2.7%  0.3782E+08  0.5198E+08  0.4689E+06 -0.2234E+05  0.8564E-02   1.227      0.1042E-01
   63300  0.3165E-01  0.5000E-06 NODE    10242326  -2.7%  0.3802E+08  0.5176E+08  0.4687E+06 -0.2255E+05  0.8565E-02   1.227      0.1042E-01
 **WARNING MINIMUM TIME STEP   0.4630E-06 IN INTERFACE          9(DTMIN=  0.5000E-06)
   DELETE SECONDARY NODE    9929998 FROM INTERFACE          9
   MAIN NODES :     308488  11173243  11173240  11173242
   63400  0.3170E-01  0.5000E-06 NODE    10242326  -2.7%  0.3821E+08  0.5155E+08  0.4682E+06 -0.2281E+05  0.8566E-02   1.227      0.1042E-01
   63500  0.3175E-01  0.5000E-06 NODE      415484  -2.7%  0.3840E+08  0.5134E+08  0.4676E+06 -0.2305E+05  0.8567E-02   1.227      0.1042E-01
   63600  0.3180E-01  0.5000E-06 NODE      149030  -2.8%  0.3860E+08  0.5113E+08  0.4650E+06 -0.2326E+05  0.8569E-02   1.227      0.1042E-01
   63700  0.3185E-01  0.5000E-06 NODE    10254534  -2.8%  0.3879E+08  0.5092E+08  0.4644E+06 -0.2341E+05  0.8570E-02   1.227      0.1043E-01
   63800  0.3190E-01  0.5000E-06 NODE    10238935  -2.8%  0.3899E+08  0.5070E+08  0.4648E+06 -0.2356E+05  0.8571E-02   1.227      0.1043E-01
   63900  0.3195E-01  0.5000E-06 NODE    11211278  -2.8%  0.3918E+08  0.5050E+08  0.4604E+06 -0.2367E+05  0.8572E-02   1.227      0.1043E-01
   64000  0.3200E-01  0.5000E-06 NODE     9936604  -2.8%  0.3937E+08  0.5029E+08  0.4564E+06 -0.2380E+05  0.8573E-02   1.227      0.1043E-01
   64100  0.3205E-01  0.5000E-06 NODE    10811037  -2.9%  0.3956E+08  0.5008E+08  0.4579E+06 -0.2393E+05  0.8574E-02   1.227      0.1043E-01
   64200  0.3210E-01  0.5000E-06 NODE    10801788  -2.9%  0.3974E+08  0.4988E+08  0.4598E+06 -0.2406E+05  0.8575E-02   1.227      0.1043E-01
 **WARNING MINIMUM TIME STEP   0.4436E-06 IN INTERFACE          9(DTMIN=  0.5000E-06)
   DELETE SECONDARY NODE     311880 FROM INTERFACE          9
   MAIN NODES :     308468  11173163  11173845  11173827
 **WARNING MINIMUM TIME STEP   0.4651E-06 IN INTERFACE          9(DTMIN=  0.5000E-06)
   DELETE SECONDARY NODE    9930878 FROM INTERFACE          9
   MAIN NODES :     308468  11173163  11173845  11173827
 **WARNING MINIMUM TIME STEP   0.4483E-06 IN INTERFACE          9(DTMIN=  0.5000E-06)
   DELETE SECONDARY NODE     311879 FROM INTERFACE          9
   MAIN NODES :     308912   9936367  11173825  11173827
   64300  0.3215E-01  0.5000E-06 NODE    11211278  -2.9%  0.3992E+08  0.4968E+08  0.4591E+06 -0.2413E+05  0.8576E-02   1.227      0.1043E-01
   64400  0.3220E-01  0.5000E-06 NODE      415738  -2.9%  0.4011E+08  0.4948E+08  0.4577E+06 -0.2419E+05  0.8578E-02   1.227      0.1044E-01
   64500  0.3225E-01  0.5000E-06 NODE      149029  -2.9%  0.4031E+08  0.4927E+08  0.4565E+06 -0.2425E+05  0.8579E-02   1.227      0.1044E-01
   64600  0.3230E-01  0.5000E-06 NODE    10813337  -3.0%  0.4049E+08  0.4906E+08  0.4554E+06 -0.2432E+05  0.8580E-02   1.227      0.1044E-01
 **WARNING MINIMUM TIME STEP   0.4864E-06 IN INTERFACE         13(DTMIN=  0.5000E-06)
   DELETE SECONDARY NODE    9936647 FROM INTERFACE         13
   MAIN NODES :     304186   9923108   9923105   9923107
 **WARNING MINIMUM TIME STEP   0.4864E-06 IN INTERFACE         14(DTMIN=  0.5000E-06)
   DELETE SECONDARY NODE    9936647 FROM INTERFACE         14
   MAIN NODES :     304186   9923108   9923105   9923107
   64700  0.3235E-01  0.5000E-06 NODE    10245450  -3.0%  0.4067E+08  0.4886E+08  0.4551E+06 -0.2441E+05  0.8582E-02   1.227      0.1044E-01
   64800  0.3240E-01  0.5000E-06 NODE    10398640  -3.0%  0.4085E+08  0.4866E+08  0.4541E+06 -0.2453E+05  0.8583E-02   1.227      0.1044E-01
 **WARNING MINIMUM TIME STEP   0.4573E-06 IN INTERFACE          9(DTMIN=  0.5000E-06)
   DELETE SECONDARY NODE    9929993 FROM INTERFACE          9
   MAIN NODES :     308477  11173142  11173240  11173243
   64900  0.3245E-01  0.5000E-06 NODE    10244075  -3.0%  0.4103E+08  0.4847E+08  0.4532E+06 -0.2461E+05  0.8584E-02   1.227      0.1044E-01
 **WARNING MINIMUM TIME STEP   0.2871E-06 IN INTERFACE          9(DTMIN=  0.5000E-06)
   DELETE SECONDARY NODE    9930164 FROM INTERFACE          9
   MAIN NODES :     308499  11173438  11173450  11173347
   65000  0.3250E-01  0.5000E-06 NODE    10245449  -3.0%  0.4122E+08  0.4827E+08  0.4544E+06 -0.2471E+05  0.8585E-02   1.227      0.1044E-01
   65100  0.3255E-01  0.5000E-06 NODE    10245449  -3.0%  0.4141E+08  0.4807E+08  0.4509E+06 -0.2480E+05  0.8586E-02   1.227      0.1045E-01
   65200  0.3260E-01  0.5000E-06 NODE    10789470  -3.1%  0.4158E+08  0.4787E+08  0.4520E+06 -0.2487E+05  0.8586E-02   1.227      0.1045E-01
   65300  0.3265E-01  0.5000E-06 NODE    10245449  -3.1%  0.4176E+08  0.4768E+08  0.4505E+06 -0.2493E+05  0.8587E-02   1.227      0.1045E-01
   65400  0.3270E-01  0.5000E-06 NODE    11211278  -3.1%  0.4195E+08  0.4748E+08  0.4472E+06 -0.2499E+05  0.8588E-02   1.227      0.1045E-01
   65500  0.3275E-01  0.5000E-06 NODE    10811582  -3.1%  0.4212E+08  0.4729E+08  0.4467E+06 -0.2505E+05  0.8589E-02   1.227      0.1045E-01
   65600  0.3280E-01  0.5000E-06 NODE      415387  -3.1%  0.4228E+08  0.4712E+08  0.4459E+06 -0.2509E+05  0.8591E-02   1.227      0.1045E-01
   65700  0.3285E-01  0.5000E-06 NODE    10813162  -3.2%  0.4244E+08  0.4694E+08  0.4460E+06 -0.2514E+05  0.8592E-02   1.227      0.1045E-01
 **WARNING MINIMUM TIME STEP   0.4375E-06 IN INTERFACE         15(DTMIN=  0.5000E-06)
   DELETE SECONDARY NODE      39301 FROM INTERFACE         15
   MAIN NODES :      78254  10576828  10576825  10576634
 **WARNING MINIMUM TIME STEP   0.4375E-06 IN INTERFACE         16(DTMIN=  0.5000E-06)
   DELETE SECONDARY NODE      39301 FROM INTERFACE         16
   MAIN NODES :      78254  10576828  10576825  10576634
   65800  0.3290E-01  0.5000E-06 NODE    10245449  -3.2%  0.4261E+08  0.4675E+08  0.4457E+06 -0.2519E+05  0.8594E-02   1.227      0.1045E-01
   65900  0.3295E-01  0.5000E-06 NODE    11171712  -3.2%  0.4277E+08  0.4657E+08  0.4453E+06 -0.2523E+05  0.8595E-02   1.227      0.1046E-01
   CYCLE    TIME      TIME-STEP  ELEMENT          ERROR  I-ENERGY    K-ENERGY T  K-ENERGY R  EXT-WORK     MAS.ERR     TOTAL MASS  MASS ADDED
   66000  0.3300E-01  0.5000E-06 NODE    10245449  -3.2%  0.4294E+08  0.4639E+08  0.4433E+06 -0.2525E+05  0.8596E-02   1.227      0.1046E-01
   66100  0.3305E-01  0.5000E-06 NODE    10239563  -3.2%  0.4310E+08  0.4621E+08  0.4422E+06 -0.2527E+05  0.8597E-02   1.227      0.1046E-01
   66200  0.3310E-01  0.5000E-06 NODE      150741  -3.2%  0.4326E+08  0.4603E+08  0.4425E+06 -0.2530E+05  0.8598E-02   1.227      0.1046E-01
   66300  0.3315E-01  0.5000E-06 NODE      415388  -3.3%  0.4342E+08  0.4586E+08  0.4427E+06 -0.2532E+05  0.8600E-02   1.227      0.1046E-01
   66400  0.3320E-01  0.5000E-06 NODE     9929337  -3.3%  0.4358E+08  0.4568E+08  0.4391E+06 -0.2534E+05  0.8601E-02   1.227      0.1046E-01
   66500  0.3325E-01  0.5000E-06 NODE      415375  -3.3%  0.4374E+08  0.4551E+08  0.4358E+06 -0.2536E+05  0.8603E-02   1.227      0.1047E-01
 **WARNING MINIMUM TIME STEP   0.4758E-06 IN INTERFACE         14(DTMIN=  0.5000E-06)
   DELETE SECONDARY NODE     309506 FROM INTERFACE         14
   MAIN NODES :     310760   9929357   9929355   9929342
   66600  0.3330E-01  0.5000E-06 NODE    10398638  -3.3%  0.4389E+08  0.4534E+08  0.4322E+06 -0.2539E+05  0.8605E-02   1.227      0.1047E-01
   66700  0.3335E-01  0.5000E-06 NODE      150741  -3.3%  0.4405E+08  0.4517E+08  0.4300E+06 -0.2541E+05  0.8607E-02   1.227      0.1047E-01
   66800  0.3340E-01  0.5000E-06 NODE      408228  -3.4%  0.4420E+08  0.4500E+08  0.4320E+06 -0.2546E+05  0.8608E-02   1.227      0.1047E-01
   66900  0.3345E-01  0.5000E-06 NODE    11211256  -3.4%  0.4435E+08  0.4483E+08  0.4318E+06 -0.2548E+05  0.8609E-02   1.227      0.1047E-01
   67000  0.3350E-01  0.5000E-06 NODE    10255356  -3.4%  0.4448E+08  0.4468E+08  0.4322E+06 -0.2551E+05  0.8610E-02   1.227      0.1047E-01
   67100  0.3355E-01  0.5000E-06 NODE    11189734  -3.4%  0.4463E+08  0.4452E+08  0.4327E+06 -0.2555E+05  0.8611E-02   1.227      0.1048E-01
 **WARNING MINIMUM TIME STEP   0.3871E-06 IN INTERFACE         13(DTMIN=  0.5000E-06)
   DELETE SECONDARY NODE     306338 FROM INTERFACE         13
   MAIN NODES :     312999   9934088   9934085   9934044
 **WARNING MINIMUM TIME STEP   0.3871E-06 IN INTERFACE         14(DTMIN=  0.5000E-06)
   DELETE SECONDARY NODE     306338 FROM INTERFACE         14
   MAIN NODES :     312999   9934088   9934085   9934044
   67200  0.3360E-01  0.5000E-06 NODE    10815982  -3.4%  0.4477E+08  0.4436E+08  0.4316E+06 -0.2560E+05  0.8612E-02   1.227      0.1048E-01
   67300  0.3365E-01  0.5000E-06 NODE    11169957  -3.4%  0.4491E+08  0.4421E+08  0.4286E+06 -0.2566E+05  0.8613E-02   1.227      0.1048E-01
   67400  0.3370E-01  0.5000E-06 NODE    10809587  -3.5%  0.4506E+08  0.4405E+08  0.4244E+06 -0.2570E+05  0.8614E-02   1.227      0.1048E-01
 **WARNING MINIMUM TIME STEP   0.4848E-06 IN INTERFACE         13(DTMIN=  0.5000E-06)
   DELETE SECONDARY NODE    9933502 FROM INTERFACE         13
   MAIN NODES :     304183   9923112   9923110   9923111
 **WARNING MINIMUM TIME STEP   0.4842E-06 IN INTERFACE         13(DTMIN=  0.5000E-06)
   DELETE SECONDARY NODE    9933502 FROM INTERFACE         13
   MAIN NODES :     304183   9923111   9923210   9923213
 **WARNING MINIMUM TIME STEP   0.4848E-06 IN INTERFACE         14(DTMIN=  0.5000E-06)
   DELETE SECONDARY NODE    9933502 FROM INTERFACE         14
   MAIN NODES :     304183   9923112   9923110   9923111
 **WARNING MINIMUM TIME STEP   0.4842E-06 IN INTERFACE         14(DTMIN=  0.5000E-06)
   DELETE SECONDARY NODE    9933502 FROM INTERFACE         14
   MAIN NODES :     304183   9923111   9923210   9923213
 **WARNING MINIMUM TIME STEP   0.4417E-06 IN INTERFACE          9(DTMIN=  0.5000E-06)
   DELETE SECONDARY NODE    9930873 FROM INTERFACE          9
   MAIN NODES :     308468  11173827  11173825  11173063
   67500  0.3375E-01  0.5000E-06 NODE    10815842  -3.5%  0.4519E+08  0.4390E+08  0.4269E+06 -0.2575E+05  0.8616E-02   1.227      0.1048E-01
   67600  0.3380E-01  0.5000E-06 NODE    10245449  -3.5%  0.4532E+08  0.4375E+08  0.4260E+06 -0.2579E+05  0.8616E-02   1.227      0.1048E-01
 **WARNING MINIMUM TIME STEP   0.4698E-06 IN INTERFACE          9(DTMIN=  0.5000E-06)
   DELETE SECONDARY NODE    9929997 FROM INTERFACE          9
   MAIN NODES :     308487  11173242  11173240  11173233
   67700  0.3385E-01  0.5000E-06 NODE    10239821  -3.5%  0.4546E+08  0.4360E+08  0.4213E+06 -0.2585E+05  0.8617E-02   1.227      0.1048E-01
   67800  0.3390E-01  0.5000E-06 NODE    10245449  -3.5%  0.4559E+08  0.4346E+08  0.4179E+06 -0.2592E+05  0.8618E-02   1.227      0.1048E-01
 **WARNING MINIMUM TIME STEP   0.3540E-06 IN INTERFACE         13(DTMIN=  0.5000E-06)
   DELETE SECONDARY NODE     312898 FROM INTERFACE         13
   MAIN NODES :     304184   9923182   9923180   9923117
 **WARNING MINIMUM TIME STEP   0.3540E-06 IN INTERFACE         14(DTMIN=  0.5000E-06)
   DELETE SECONDARY NODE     312898 FROM INTERFACE         14
   MAIN NODES :     304184   9923182   9923180   9923117
   67900  0.3395E-01  0.5000E-06 NODE    10245449  -3.5%  0.4571E+08  0.4333E+08  0.4179E+06 -0.2599E+05  0.8619E-02   1.227      0.1049E-01
   68000  0.3400E-01  0.5000E-06 NODE      304202  -3.6%  0.4583E+08  0.4319E+08  0.4180E+06 -0.2607E+05  0.8620E-02   1.227      0.1049E-01
   68100  0.3405E-01  0.5000E-06 NODE    10245449  -3.6%  0.4594E+08  0.4306E+08  0.4178E+06 -0.2617E+05  0.8622E-02   1.227      0.1049E-01
   68200  0.3410E-01  0.5000E-06 NODE    11189736  -3.6%  0.4606E+08  0.4294E+08  0.4177E+06 -0.2627E+05  0.8623E-02   1.227      0.1049E-01
   68300  0.3415E-01  0.5000E-06 NODE    10789343  -3.6%  0.4617E+08  0.4281E+08  0.4165E+06 -0.2636E+05  0.8624E-02   1.227      0.1049E-01
   68400  0.3420E-01  0.5000E-06 NODE    10815943  -3.6%  0.4629E+08  0.4269E+08  0.4148E+06 -0.2644E+05  0.8626E-02   1.227      0.1049E-01
   68500  0.3425E-01  0.5000E-06 NODE    10880179  -3.6%  0.4640E+08  0.4256E+08  0.4143E+06 -0.2650E+05  0.8627E-02   1.227      0.1050E-01
   68600  0.3430E-01  0.5000E-06 NODE    10880179  -3.6%  0.4650E+08  0.4244E+08  0.4141E+06 -0.2654E+05  0.8627E-02   1.227      0.1050E-01
   68700  0.3435E-01  0.5000E-06 NODE      416790  -3.7%  0.4662E+08  0.4232E+08  0.4120E+06 -0.2658E+05  0.8628E-02   1.227      0.1050E-01
   68800  0.3440E-01  0.5000E-06 NODE    10880179  -3.7%  0.4672E+08  0.4221E+08  0.4111E+06 -0.2660E+05  0.8630E-02   1.227      0.1050E-01
 **WARNING MINIMUM TIME STEP   0.4170E-06 IN INTERFACE          9(DTMIN=  0.5000E-06)
   DELETE SECONDARY NODE     311672 FROM INTERFACE          9
   MAIN NODES :     308489  11173252  11173345  11173348
   68900  0.3445E-01  0.5000E-06 NODE    10815840  -3.7%  0.4682E+08  0.4210E+08  0.4135E+06 -0.2662E+05  0.8630E-02   1.227      0.1050E-01
   69000  0.3450E-01  0.5000E-06 NODE    10880179  -3.7%  0.4692E+08  0.4199E+08  0.4131E+06 -0.2664E+05  0.8631E-02   1.227      0.1050E-01
 **WARNING MINIMUM TIME STEP   0.4249E-06 IN INTERFACE          9(DTMIN=  0.5000E-06)
   DELETE SECONDARY NODE    9930160 FROM INTERFACE          9
   MAIN NODES :     308500  11173348  11173345  11173347
   69100  0.3455E-01  0.5000E-06 NODE    10880179  -3.7%  0.4701E+08  0.4189E+08  0.4138E+06 -0.2665E+05  0.8632E-02   1.227      0.1050E-01
   69200  0.3460E-01  0.5000E-06 NODE    10396544  -3.7%  0.4710E+08  0.4179E+08  0.4143E+06 -0.2668E+05  0.8632E-02   1.227      0.1050E-01
   69300  0.3465E-01  0.5000E-06 NODE    10239820  -3.7%  0.4719E+08  0.4169E+08  0.4114E+06 -0.2670E+05  0.8634E-02   1.227      0.1050E-01
   69400  0.3470E-01  0.5000E-06 NODE      304797  -3.7%  0.4727E+08  0.4161E+08  0.4097E+06 -0.2671E+05  0.8634E-02   1.227      0.1050E-01
   69500  0.3475E-01  0.5000E-06 NODE      408228  -3.7%  0.4734E+08  0.4152E+08  0.4074E+06 -0.2673E+05  0.8635E-02   1.227      0.1051E-01
   69600  0.3480E-01  0.5000E-06 NODE      191655  -3.8%  0.4741E+08  0.4144E+08  0.4066E+06 -0.2676E+05  0.8636E-02   1.227      0.1051E-01
   69700  0.3485E-01  0.5000E-06 NODE    11190590  -3.8%  0.4749E+08  0.4136E+08  0.4056E+06 -0.2680E+05  0.8637E-02   1.227      0.1051E-01
   69800  0.3490E-01  0.5000E-06 NODE      312778  -3.8%  0.4757E+08  0.4128E+08  0.4051E+06 -0.2685E+05  0.8638E-02   1.227      0.1051E-01
   69900  0.3495E-01  0.5000E-06 NODE      408228  -3.8%  0.4763E+08  0.4121E+08  0.4042E+06 -0.2689E+05  0.8638E-02   1.227      0.1051E-01
   70000  0.3500E-01  0.5000E-06 NODE      158529  -3.8%  0.4769E+08  0.4114E+08  0.4043E+06 -0.2692E+05  0.8639E-02   1.227      0.1051E-01
     ANIMATION FILE: NEON1M11A008 WRITTEN
 **WARNING MINIMUM TIME STEP   0.4984E-06 IN INTERFACE         17(DTMIN=  0.5000E-06)
   DELETE SECONDARY NODE      33058 FROM INTERFACE         17
   MAIN NODES :     125291  10716162  10716160  10716153
   70100  0.3505E-01  0.5000E-06 NODE      191195  -3.8%  0.4776E+08  0.4107E+08  0.4031E+06 -0.2694E+05  0.8640E-02   1.227      0.1051E-01
   70200  0.3510E-01  0.5000E-06 NODE    10242263  -3.8%  0.4782E+08  0.4100E+08  0.3994E+06 -0.2695E+05  0.8641E-02   1.227      0.1051E-01
   70300  0.3515E-01  0.5000E-06 NODE    10013591  -3.8%  0.4788E+08  0.4094E+08  0.3976E+06 -0.2697E+05  0.8642E-02   1.227      0.1051E-01
   70400  0.3520E-01  0.5000E-06 NODE    10242263  -3.8%  0.4793E+08  0.4088E+08  0.3969E+06 -0.2702E+05  0.8642E-02   1.227      0.1051E-01
   70500  0.3525E-01  0.5000E-06 NODE      408228  -3.8%  0.4798E+08  0.4083E+08  0.3976E+06 -0.2709E+05  0.8643E-02   1.227      0.1051E-01
   70600  0.3530E-01  0.5000E-06 NODE      150575  -3.8%  0.4803E+08  0.4078E+08  0.3989E+06 -0.2714E+05  0.8644E-02   1.227      0.1052E-01
   70700  0.3535E-01  0.5000E-06 NODE      408228  -3.8%  0.4807E+08  0.4073E+08  0.3992E+06 -0.2718E+05  0.8645E-02   1.227      0.1052E-01
   70800  0.3540E-01  0.5000E-06 NODE      408228  -3.8%  0.4811E+08  0.4068E+08  0.4003E+06 -0.2719E+05  0.8646E-02   1.227      0.1052E-01
   70900  0.3545E-01  0.5000E-06 NODE    11189736  -3.8%  0.4815E+08  0.4065E+08  0.4006E+06 -0.2721E+05  0.8647E-02   1.227      0.1052E-01
 **WARNING MINIMUM TIME STEP   0.4693E-06 IN INTERFACE          9(DTMIN=  0.5000E-06)
   DELETE SECONDARY NODE     311878 FROM INTERFACE          9
   MAIN NODES :     308457  11172957  11173060  11173063
   71000  0.3550E-01  0.5000E-06 NODE    11189736  -3.8%  0.4819E+08  0.4061E+08  0.3994E+06 -0.2727E+05  0.8648E-02   1.227      0.1052E-01
   71100  0.3555E-01  0.5000E-06 NODE      418305  -3.8%  0.4822E+08  0.4057E+08  0.4003E+06 -0.2735E+05  0.8648E-02   1.227      0.1052E-01
 **WARNING MINIMUM TIME STEP   0.4725E-06 IN INTERFACE          9(DTMIN=  0.5000E-06)
   DELETE SECONDARY NODE    9931453 FROM INTERFACE          9
   MAIN NODES :     308524   9934682   9934685   9934688
 **WARNING MINIMUM TIME STEP   0.4317E-06 IN INTERFACE         15(DTMIN=  0.5000E-06)
   DELETE SECONDARY NODE     237281 FROM INTERFACE         15
   MAIN NODES :     185124  10858972  10858970  10858968
   71200  0.3560E-01  0.5000E-06 NODE      158708  -3.8%  0.4824E+08  0.4054E+08  0.4017E+06 -0.2746E+05  0.8649E-02   1.227      0.1052E-01
   71300  0.3565E-01  0.5000E-06 NODE    10239820  -3.8%  0.4827E+08  0.4051E+08  0.4030E+06 -0.2759E+05  0.8650E-02   1.227      0.1052E-01
   71400  0.3570E-01  0.5000E-06 NODE      158574  -3.8%  0.4829E+08  0.4049E+08  0.4021E+06 -0.2763E+05  0.8650E-02   1.227      0.1052E-01
   CYCLE    TIME      TIME-STEP  ELEMENT          ERROR  I-ENERGY    K-ENERGY T  K-ENERGY R  EXT-WORK     MAS.ERR     TOTAL MASS  MASS ADDED
   71500  0.3575E-01  0.5000E-06 NODE    11189736  -3.8%  0.4832E+08  0.4046E+08  0.4023E+06 -0.2767E+05  0.8651E-02   1.227      0.1052E-01
   71600  0.3580E-01  0.5000E-06 NODE    10245095  -3.8%  0.4834E+08  0.4043E+08  0.4046E+06 -0.2772E+05  0.8652E-02   1.227      0.1053E-01
   71700  0.3585E-01  0.5000E-06 NODE      191655  -3.8%  0.4836E+08  0.4041E+08  0.4042E+06 -0.2789E+05  0.8653E-02   1.227      0.1053E-01
 **WARNING MINIMUM TIME STEP   0.4284E-06 IN INTERFACE          9(DTMIN=  0.5000E-06)
   DELETE SECONDARY NODE    9930897 FROM INTERFACE          9
   MAIN NODES :     308468  11173062  11173160  11173163
   71800  0.3590E-01  0.5000E-06 NODE    10253010  -3.8%  0.4838E+08  0.4039E+08  0.4038E+06 -0.2810E+05  0.8653E-02   1.227      0.1053E-01
   71900  0.3595E-01  0.5000E-06 NODE    10013745  -3.8%  0.4840E+08  0.4037E+08  0.4037E+06 -0.2824E+05  0.8654E-02   1.227      0.1053E-01
   72000  0.3600E-01  0.5000E-06 NODE      339153  -3.8%  0.4842E+08  0.4036E+08  0.4009E+06 -0.2829E+05  0.8655E-02   1.227      0.1053E-01
 **WARNING MINIMUM TIME STEP   0.4879E-06 IN INTERFACE          9(DTMIN=  0.5000E-06)
   DELETE SECONDARY NODE    9930868 FROM INTERFACE          9
   MAIN NODES :     308457  11172957  11173060  11173063
   72100  0.3605E-01  0.5000E-06 NODE      158575  -3.8%  0.4844E+08  0.4034E+08  0.3994E+06 -0.2831E+05  0.8655E-02   1.227      0.1053E-01
   72200  0.3610E-01  0.5000E-06 NODE    10815900  -3.8%  0.4844E+08  0.4034E+08  0.4010E+06 -0.2835E+05  0.8656E-02   1.227      0.1053E-01
 **WARNING MINIMUM TIME STEP   0.1422E-06 IN INTERFACE         13(DTMIN=  0.5000E-06)
   DELETE SECONDARY NODE     306356 FROM INTERFACE         13
   MAIN NODES :     311633   9930012   9930010   9930011
 **WARNING MINIMUM TIME STEP   0.4945E-06 IN INTERFACE         13(DTMIN=  0.5000E-06)
   DELETE SECONDARY NODE     311899 FROM INTERFACE         13
   MAIN NODES :     313549   9934792   9934790   9934791
 **WARNING MINIMUM TIME STEP   0.4124E-06 IN INTERFACE         15(DTMIN=  0.5000E-06)
   DELETE SECONDARY NODE     238120 FROM INTERFACE         15
   MAIN NODES :     245248  11041807  11041840  11041837
 **WARNING MINIMUM TIME STEP   0.4954E-06 IN INTERFACE         13(DTMIN=  0.5000E-06)
   DELETE SECONDARY NODE    9930943 FROM INTERFACE         13
   MAIN NODES :     313549   9934792   9934790   9934791
   72300  0.3615E-01  0.5000E-06 NODE    11189736  -3.8%  0.4844E+08  0.4033E+08  0.4034E+06 -0.2851E+05  0.8658E-02   1.227      0.1053E-01
 **WARNING MINIMUM TIME STEP   0.4598E-06 IN INTERFACE          9(DTMIN=  0.5000E-06)
   DELETE SECONDARY NODE    9930982 FROM INTERFACE          9
   MAIN NODES :     308819  11173708  11173705   9934638
   72400  0.3620E-01  0.5000E-06 NODE      339153  -3.8%  0.4846E+08  0.4032E+08  0.4045E+06 -0.2865E+05  0.8659E-02   1.227      0.1053E-01
   72500  0.3625E-01  0.5000E-06 NODE      339153  -3.8%  0.4847E+08  0.4031E+08  0.4034E+06 -0.2879E+05  0.8659E-02   1.227      0.1053E-01
   72600  0.3630E-01  0.5000E-06 NODE      158879  -3.8%  0.4848E+08  0.4030E+08  0.4039E+06 -0.2883E+05  0.8660E-02   1.227      0.1054E-01
   72700  0.3635E-01  0.5000E-06 NODE      339153  -3.8%  0.4849E+08  0.4030E+08  0.4044E+06 -0.2885E+05  0.8661E-02   1.227      0.1054E-01
 **WARNING MINIMUM TIME STEP   0.4781E-06 IN INTERFACE         12(DTMIN=  0.5000E-06)
   DELETE SECONDARY NODE    9930288 FROM INTERFACE         12
   MAIN NODES :     306462    306463    306419    306404
   72800  0.3640E-01  0.5000E-06 NODE      339153  -3.8%  0.4849E+08  0.4030E+08  0.4044E+06 -0.2889E+05  0.8662E-02   1.227      0.1054E-01
   72900  0.3645E-01  0.5000E-06 NODE      339153  -3.8%  0.4849E+08  0.4030E+08  0.4031E+06 -0.2896E+05  0.8662E-02   1.227      0.1054E-01
   73000  0.3650E-01  0.5000E-06 NODE      418305  -3.8%  0.4849E+08  0.4030E+08  0.4017E+06 -0.2909E+05  0.8663E-02   1.227      0.1054E-01
   73100  0.3655E-01  0.5000E-06 NODE    10239106  -3.8%  0.4850E+08  0.4030E+08  0.4001E+06 -0.2914E+05  0.8664E-02   1.227      0.1054E-01
   73200  0.3660E-01  0.5000E-06 NODE    10239106  -3.8%  0.4850E+08  0.4029E+08  0.4001E+06 -0.2918E+05  0.8665E-02   1.227      0.1054E-01
   73300  0.3665E-01  0.5000E-06 NODE    10239106  -3.8%  0.4851E+08  0.4029E+08  0.4005E+06 -0.2922E+05  0.8665E-02   1.227      0.1054E-01
   73400  0.3670E-01  0.5000E-06 NODE    10239106  -3.8%  0.4851E+08  0.4029E+08  0.4023E+06 -0.2931E+05  0.8666E-02   1.227      0.1054E-01
   73500  0.3675E-01  0.5000E-06 NODE    10239106  -3.8%  0.4851E+08  0.4030E+08  0.4008E+06 -0.2943E+05  0.8667E-02   1.227      0.1054E-01
   73600  0.3680E-01  0.5000E-06 NODE      408246  -3.8%  0.4850E+08  0.4030E+08  0.4004E+06 -0.2948E+05  0.8667E-02   1.227      0.1054E-01
   73700  0.3685E-01  0.5000E-06 NODE      158574  -3.8%  0.4850E+08  0.4031E+08  0.3984E+06 -0.2951E+05  0.8668E-02   1.227      0.1055E-01
 **WARNING MINIMUM TIME STEP   0.4878E-06 IN INTERFACE          9(DTMIN=  0.5000E-06)
   DELETE SECONDARY NODE     311591 FROM INTERFACE          9
   MAIN NODES :     308392  11172372  11172370  11172371
   73800  0.3690E-01  0.5000E-06 NODE    10786193  -3.8%  0.4851E+08  0.4030E+08  0.3982E+06 -0.2955E+05  0.8669E-02   1.227      0.1055E-01
   73900  0.3695E-01  0.5000E-06 NODE      408246  -3.8%  0.4851E+08  0.4030E+08  0.3971E+06 -0.2963E+05  0.8669E-02   1.227      0.1055E-01
   74000  0.3700E-01  0.5000E-06 NODE      408246  -3.8%  0.4850E+08  0.4031E+08  0.3977E+06 -0.2976E+05  0.8670E-02   1.227      0.1055E-01
   74100  0.3705E-01  0.5000E-06 NODE    10013593  -3.8%  0.4850E+08  0.4031E+08  0.3954E+06 -0.2981E+05  0.8671E-02   1.227      0.1055E-01
   74200  0.3710E-01  0.5000E-06 NODE    10241345  -3.8%  0.4850E+08  0.4031E+08  0.3936E+06 -0.2983E+05  0.8671E-02   1.227      0.1055E-01
   74300  0.3715E-01  0.5000E-06 NODE    10245165  -3.8%  0.4851E+08  0.4031E+08  0.3938E+06 -0.2988E+05  0.8672E-02   1.227      0.1055E-01
   74400  0.3720E-01  0.5000E-06 NODE    10239106  -3.8%  0.4851E+08  0.4031E+08  0.3933E+06 -0.3004E+05  0.8672E-02   1.227      0.1055E-01
   74500  0.3725E-01  0.5000E-06 NODE    10346660  -3.8%  0.4850E+08  0.4031E+08  0.3925E+06 -0.3013E+05  0.8673E-02   1.227      0.1055E-01
   74600  0.3730E-01  0.5000E-06 NODE    10789315  -3.8%  0.4850E+08  0.4031E+08  0.3921E+06 -0.3015E+05  0.8673E-02   1.227      0.1055E-01
 **WARNING MINIMUM TIME STEP   0.4477E-06 IN INTERFACE          9(DTMIN=  0.5000E-06)
   DELETE SECONDARY NODE     311903 FROM INTERFACE          9
   MAIN NODES :     308523  11173562  11173705  11173708
   74700  0.3735E-01  0.5000E-06 NODE    10239106  -3.8%  0.4850E+08  0.4031E+08  0.3912E+06 -0.3017E+05  0.8675E-02   1.227      0.1055E-01
   74800  0.3740E-01  0.5000E-06 NODE      158626  -3.8%  0.4850E+08  0.4031E+08  0.3906E+06 -0.3024E+05  0.8675E-02   1.227      0.1055E-01
   74900  0.3745E-01  0.5000E-06 NODE      339153  -3.8%  0.4849E+08  0.4032E+08  0.3900E+06 -0.3033E+05  0.8676E-02   1.227      0.1055E-01
   75000  0.3750E-01  0.5000E-06 NODE      339153  -3.8%  0.4849E+08  0.4032E+08  0.3928E+06 -0.3037E+05  0.8676E-02   1.227      0.1056E-01
   75100  0.3755E-01  0.5000E-06 NODE      150136  -3.8%  0.4849E+08  0.4031E+08  0.3936E+06 -0.3039E+05  0.8677E-02   1.227      0.1056E-01
   75200  0.3760E-01  0.5000E-06 NODE    10239106  -3.8%  0.4849E+08  0.4031E+08  0.3910E+06 -0.3049E+05  0.8677E-02   1.227      0.1056E-01
   75300  0.3765E-01  0.5000E-06 NODE      150136  -3.8%  0.4849E+08  0.4031E+08  0.3906E+06 -0.3058E+05  0.8678E-02   1.227      0.1056E-01
   75400  0.3770E-01  0.5000E-06 NODE    10218342  -3.8%  0.4849E+08  0.4031E+08  0.3916E+06 -0.3061E+05  0.8678E-02   1.227      0.1056E-01
   75500  0.3775E-01  0.5000E-06 NODE    10013586  -3.8%  0.4849E+08  0.4031E+08  0.3933E+06 -0.3065E+05  0.8679E-02   1.227      0.1056E-01
   75600  0.3780E-01  0.5000E-06 NODE    10013593  -3.8%  0.4849E+08  0.4031E+08  0.3918E+06 -0.3073E+05  0.8679E-02   1.227      0.1056E-01
   75700  0.3785E-01  0.5000E-06 NODE    10013593  -3.8%  0.4849E+08  0.4031E+08  0.3939E+06 -0.3079E+05  0.8680E-02   1.227      0.1056E-01
   75800  0.3790E-01  0.5000E-06 NODE    11211254  -3.8%  0.4850E+08  0.4030E+08  0.3959E+06 -0.3081E+05  0.8681E-02   1.227      0.1056E-01
   75900  0.3795E-01  0.5000E-06 NODE    11211254  -3.8%  0.4849E+08  0.4030E+08  0.3947E+06 -0.3084E+05  0.8682E-02   1.227      0.1056E-01
   76000  0.3800E-01  0.5000E-06 NODE      417173  -3.8%  0.4849E+08  0.4031E+08  0.3939E+06 -0.3099E+05  0.8682E-02   1.227      0.1056E-01
   76100  0.3805E-01  0.5000E-06 NODE       26015  -3.8%  0.4850E+08  0.4030E+08  0.3928E+06 -0.3108E+05  0.8684E-02   1.227      0.1056E-01
   76200  0.3810E-01  0.5000E-06 NODE    10013593  -3.8%  0.4850E+08  0.4030E+08  0.3914E+06 -0.3110E+05  0.8684E-02   1.227      0.1057E-01
   76300  0.3815E-01  0.5000E-06 NODE    10013593  -3.8%  0.4848E+08  0.4031E+08  0.3936E+06 -0.3119E+05  0.8685E-02   1.227      0.1057E-01
   76400  0.3820E-01  0.5000E-06 NODE    10013593  -3.8%  0.4849E+08  0.4030E+08  0.3934E+06 -0.3130E+05  0.8686E-02   1.227      0.1057E-01
   76500  0.3825E-01  0.5000E-06 NODE      339155  -3.8%  0.4849E+08  0.4030E+08  0.3915E+06 -0.3134E+05  0.8686E-02   1.227      0.1057E-01
   76600  0.3830E-01  0.5000E-06 NODE    10789325  -3.8%  0.4849E+08  0.4030E+08  0.3896E+06 -0.3138E+05  0.8687E-02   1.227      0.1057E-01
   76700  0.3835E-01  0.5000E-06 NODE    11189736  -3.8%  0.4850E+08  0.4029E+08  0.3887E+06 -0.3152E+05  0.8688E-02   1.227      0.1057E-01
   76800  0.3840E-01  0.5000E-06 NODE    10815803  -3.8%  0.4850E+08  0.4029E+08  0.3861E+06 -0.3168E+05  0.8688E-02   1.227      0.1057E-01
   76900  0.3845E-01  0.5000E-06 NODE    11189736  -3.9%  0.4851E+08  0.4026E+08  0.3874E+06 -0.3170E+05  0.8689E-02   1.227      0.1057E-01
   CYCLE    TIME      TIME-STEP  ELEMENT          ERROR  I-ENERGY    K-ENERGY T  K-ENERGY R  EXT-WORK     MAS.ERR     TOTAL MASS  MASS ADDED
   77000  0.3850E-01  0.5000E-06 NODE    11212498  -3.8%  0.4856E+08  0.4023E+08  0.3899E+06 -0.3182E+05  0.8689E-02   1.227      0.1057E-01
   77100  0.3855E-01  0.5000E-06 NODE    10816365  -3.8%  0.4858E+08  0.4022E+08  0.3917E+06 -0.3205E+05  0.8690E-02   1.227      0.1057E-01
   77200  0.3860E-01  0.5000E-06 NODE    10789048  -3.8%  0.4860E+08  0.4021E+08  0.3898E+06 -0.3212E+05  0.8691E-02   1.227      0.1057E-01
 **WARNING MINIMUM TIME STEP   0.3770E-06 IN INTERFACE         14(DTMIN=  0.5000E-06)
   DELETE SECONDARY NODE     150051 FROM INTERFACE         14
   MAIN NODES :     157676  10815017  10815015  10814988
   77300  0.3865E-01  0.5000E-06 NODE    10013586  -3.8%  0.4863E+08  0.4018E+08  0.3891E+06 -0.3219E+05  0.8692E-02   1.227      0.1057E-01
   77400  0.3870E-01  0.5000E-06 NODE    11028828  -3.8%  0.4865E+08  0.4016E+08  0.3880E+06 -0.3232E+05  0.8693E-02   1.227      0.1058E-01
 **WARNING MINIMUM TIME STEP   0.4733E-06 IN INTERFACE          9(DTMIN=  0.5000E-06)
   DELETE SECONDARY NODE     312585 FROM INTERFACE          9
   MAIN NODES :     308534   9934848   9934845   9934847
 **WARNING MINIMUM TIME STEP   0.4733E-06 IN INTERFACE          9(DTMIN=  0.5000E-06)
   DELETE SECONDARY NODE     312585 FROM INTERFACE          9
   MAIN NODES :     308534   9934852   9934850   9934848
   77500  0.3875E-01  0.5000E-06 NODE    10786193  -3.8%  0.4866E+08  0.4014E+08  0.3895E+06 -0.3243E+05  0.8694E-02   1.227      0.1058E-01
   77600  0.3880E-01  0.5000E-06 NODE    10784952  -3.8%  0.4869E+08  0.4012E+08  0.3906E+06 -0.3248E+05  0.8694E-02   1.227      0.1058E-01
   77700  0.3885E-01  0.5000E-06 NODE    11028828  -3.8%  0.4870E+08  0.4010E+08  0.3906E+06 -0.3256E+05  0.8695E-02   1.227      0.1058E-01
   77800  0.3890E-01  0.5000E-06 NODE    10875687  -3.8%  0.4872E+08  0.4008E+08  0.3922E+06 -0.3269E+05  0.8695E-02   1.227      0.1058E-01
   77900  0.3895E-01  0.5000E-06 NODE    10875687  -3.8%  0.4874E+08  0.4006E+08  0.3916E+06 -0.3275E+05  0.8696E-02   1.227      0.1058E-01
   78000  0.3900E-01  0.5000E-06 NODE    11189736  -3.8%  0.4875E+08  0.4005E+08  0.3904E+06 -0.3280E+05  0.8697E-02   1.227      0.1058E-01
   78100  0.3905E-01  0.5000E-06 NODE    10789216  -3.8%  0.4877E+08  0.4003E+08  0.3893E+06 -0.3303E+05  0.8697E-02   1.227      0.1058E-01
   78200  0.3910E-01  0.5000E-06 NODE    10796221  -3.8%  0.4879E+08  0.4001E+08  0.3906E+06 -0.3319E+05  0.8698E-02   1.227      0.1058E-01
   78300  0.3915E-01  0.5000E-06 NODE    10878836  -3.8%  0.4880E+08  0.4000E+08  0.3889E+06 -0.3328E+05  0.8698E-02   1.227      0.1058E-01
   78400  0.3920E-01  0.5000E-06 NODE    10875715  -3.8%  0.4882E+08  0.3998E+08  0.3895E+06 -0.3343E+05  0.8700E-02   1.227      0.1058E-01
   78500  0.3925E-01  0.5000E-06 NODE    10789050  -3.8%  0.4884E+08  0.3996E+08  0.3900E+06 -0.3367E+05  0.8700E-02   1.227      0.1058E-01
   78600  0.3930E-01  0.5000E-06 NODE    11028828  -3.8%  0.4885E+08  0.3994E+08  0.3903E+06 -0.3385E+05  0.8701E-02   1.227      0.1058E-01
 **WARNING MINIMUM TIME STEP   0.4739E-06 IN INTERFACE         16(DTMIN=  0.5000E-06)
   DELETE SECONDARY NODE     306580 FROM INTERFACE         16
   MAIN NODES :     179451  10851762  10851880  10851883
   78700  0.3935E-01  0.5000E-06 NODE      411186  -3.8%  0.4888E+08  0.3992E+08  0.3911E+06 -0.3398E+05  0.8701E-02   1.227      0.1059E-01
   78800  0.3940E-01  0.5000E-06 NODE    10258351  -3.8%  0.4890E+08  0.3990E+08  0.3904E+06 -0.3419E+05  0.8702E-02   1.227      0.1059E-01
 **WARNING MINIMUM TIME STEP   0.4595E-06 IN INTERFACE         12(DTMIN=  0.5000E-06)
   DELETE SECONDARY NODE   11177656 FROM INTERFACE         12
   MAIN NODES :     306356    306357    306372    306371
   78900  0.3945E-01  0.5000E-06 NODE      411186  -3.8%  0.4891E+08  0.3988E+08  0.3914E+06 -0.3436E+05  0.8703E-02   1.227      0.1059E-01
   79000  0.3950E-01  0.5000E-06 NODE      411186  -3.8%  0.4893E+08  0.3986E+08  0.3917E+06 -0.3454E+05  0.8703E-02   1.227      0.1059E-01
   79100  0.3955E-01  0.5000E-06 NODE     9926433  -3.8%  0.4895E+08  0.3984E+08  0.3903E+06 -0.3477E+05  0.8704E-02   1.227      0.1059E-01
   79200  0.3960E-01  0.5000E-06 NODE    11028824  -3.8%  0.4896E+08  0.3982E+08  0.3905E+06 -0.3496E+05  0.8704E-02   1.227      0.1059E-01
   79300  0.3965E-01  0.5000E-06 NODE    10203131  -3.8%  0.4899E+08  0.3979E+08  0.3920E+06 -0.3524E+05  0.8705E-02   1.227      0.1059E-01
   79400  0.3970E-01  0.5000E-06 NODE      191785  -3.8%  0.4901E+08  0.3977E+08  0.3904E+06 -0.3548E+05  0.8706E-02   1.227      0.1059E-01
   79500  0.3975E-01  0.5000E-06 NODE      191785  -3.8%  0.4903E+08  0.3975E+08  0.3898E+06 -0.3581E+05  0.8707E-02   1.227      0.1059E-01
   79600  0.3980E-01  0.5000E-06 NODE      191785  -3.8%  0.4907E+08  0.3971E+08  0.3901E+06 -0.3611E+05  0.8708E-02   1.227      0.1059E-01
   79700  0.3985E-01  0.5000E-06 NODE      304774  -3.8%  0.4910E+08  0.3968E+08  0.3902E+06 -0.3641E+05  0.8709E-02   1.227      0.1059E-01
   79800  0.3990E-01  0.5000E-06 NODE    10787634  -3.9%  0.4912E+08  0.3966E+08  0.3896E+06 -0.3682E+05  0.8710E-02   1.227      0.1060E-01
   79900  0.3995E-01  0.5000E-06 NODE    10220723  -3.9%  0.4915E+08  0.3962E+08  0.3874E+06 -0.3723E+05  0.8710E-02   1.227      0.1060E-01
 **WARNING MINIMUM TIME STEP   0.4978E-06 IN INTERFACE         16(DTMIN=  0.5000E-06)
   DELETE SECONDARY NODE   10237092 FROM INTERFACE         16
   MAIN NODES :     508093  11156627  11156660  11156663
   80000  0.4000E-01  0.5000E-06 NODE    10880302  -3.9%  0.4918E+08  0.3959E+08  0.3863E+06 -0.3758E+05  0.8711E-02   1.227      0.1060E-01
     ANIMATION FILE: NEON1M11A009 WRITTEN
   80100  0.4005E-01  0.5000E-06 NODE    10787910  -3.9%  0.4921E+08  0.3956E+08  0.3851E+06 -0.3794E+05  0.8712E-02   1.227      0.1060E-01
   80200  0.4010E-01  0.5000E-06 NODE      304774  -3.9%  0.4924E+08  0.3953E+08  0.3858E+06 -0.3843E+05  0.8714E-02   1.227      0.1060E-01
   80300  0.4015E-01  0.5000E-06 NODE    10786193  -3.9%  0.4927E+08  0.3949E+08  0.3853E+06 -0.3891E+05  0.8715E-02   1.227      0.1060E-01
 **WARNING MINIMUM TIME STEP   0.4561E-06 IN INTERFACE         16(DTMIN=  0.5000E-06)
   DELETE SECONDARY NODE     414119 FROM INTERFACE         16
   MAIN NODES :     508093  11156663  11156665  11156632
   80400  0.4020E-01  0.5000E-06 NODE    10880094  -3.9%  0.4930E+08  0.3946E+08  0.3851E+06 -0.3918E+05  0.8716E-02   1.227      0.1060E-01
   80500  0.4025E-01  0.5000E-06 NODE    10880023  -3.9%  0.4933E+08  0.3943E+08  0.3851E+06 -0.3953E+05  0.8717E-02   1.227      0.1060E-01
   80600  0.4030E-01  0.5000E-06 NODE      187581  -3.9%  0.4936E+08  0.3939E+08  0.3861E+06 -0.3998E+05  0.8718E-02   1.227      0.1061E-01
   80700  0.4035E-01  0.5000E-06 NODE    10878287  -3.9%  0.4940E+08  0.3935E+08  0.3881E+06 -0.4026E+05  0.8719E-02   1.227      0.1061E-01
   80800  0.4040E-01  0.5000E-06 NODE    10013665  -3.9%  0.4943E+08  0.3932E+08  0.3889E+06 -0.4035E+05  0.8719E-02   1.227      0.1061E-01
   80900  0.4045E-01  0.5000E-06 NODE    10880175  -3.9%  0.4946E+08  0.3929E+08  0.3889E+06 -0.4058E+05  0.8721E-02   1.227      0.1061E-01
   81000  0.4050E-01  0.5000E-06 NODE    11111308  -3.9%  0.4950E+08  0.3925E+08  0.3917E+06 -0.4090E+05  0.8722E-02   1.227      0.1061E-01
 **WARNING MINIMUM TIME STEP   0.4748E-06 IN INTERFACE         16(DTMIN=  0.5000E-06)
   DELETE SECONDARY NODE   11190204 FROM INTERFACE         16
   MAIN NODES :     508094  11156632  11156665  11156668
   81100  0.4055E-01  0.5000E-06 NODE    10040239  -3.9%  0.4955E+08  0.3920E+08  0.3929E+06 -0.4113E+05  0.8723E-02   1.227      0.1061E-01
   81200  0.4060E-01  0.5000E-06 NODE     9924522  -3.9%  0.4958E+08  0.3916E+08  0.3944E+06 -0.4129E+05  0.8724E-02   1.227      0.1061E-01
   81300  0.4065E-01  0.5000E-06 NODE    11182450  -3.9%  0.4962E+08  0.3912E+08  0.3940E+06 -0.4154E+05  0.8725E-02   1.227      0.1061E-01
 **WARNING MINIMUM TIME STEP   0.4788E-06 IN INTERFACE         16(DTMIN=  0.5000E-06)
   DELETE SECONDARY NODE     117131 FROM INTERFACE         16
   MAIN NODES :       9004  10352728  10352775  10352772
 **WARNING MINIMUM TIME STEP   0.4788E-06 IN INTERFACE         17(DTMIN=  0.5000E-06)
   DELETE SECONDARY NODE     117131 FROM INTERFACE         17
   MAIN NODES :       9004  10352728  10352775  10352772
   81400  0.4070E-01  0.5000E-06 NODE     9924522  -3.9%  0.4966E+08  0.3908E+08  0.3963E+06 -0.4174E+05  0.8726E-02   1.227      0.1062E-01
   81500  0.4075E-01  0.5000E-06 NODE      345793  -3.9%  0.4970E+08  0.3903E+08  0.3993E+06 -0.4206E+05  0.8727E-02   1.227      0.1062E-01
   81600  0.4080E-01  0.5000E-06 NODE    11189558  -3.9%  0.4973E+08  0.3900E+08  0.4020E+06 -0.4238E+05  0.8728E-02   1.227      0.1062E-01
   81700  0.4085E-01  0.5000E-06 NODE    10876524  -3.9%  0.4977E+08  0.3896E+08  0.4004E+06 -0.4259E+05  0.8729E-02   1.227      0.1062E-01
   81800  0.4090E-01  0.5000E-06 NODE    11189558  -3.9%  0.4981E+08  0.3891E+08  0.4020E+06 -0.4289E+05  0.8730E-02   1.227      0.1062E-01
   81900  0.4095E-01  0.5000E-06 NODE    10239721  -3.9%  0.4986E+08  0.3886E+08  0.4064E+06 -0.4338E+05  0.8731E-02   1.227      0.1062E-01
   82000  0.4100E-01  0.5000E-06 NODE    10239721  -3.9%  0.4990E+08  0.3882E+08  0.4088E+06 -0.4394E+05  0.8732E-02   1.227      0.1062E-01
   82100  0.4105E-01  0.5000E-06 NODE      407014  -3.9%  0.4994E+08  0.3877E+08  0.4115E+06 -0.4434E+05  0.8733E-02   1.227      0.1062E-01
   82200  0.4110E-01  0.5000E-06 NODE    10785688  -3.9%  0.4998E+08  0.3873E+08  0.4109E+06 -0.4465E+05  0.8734E-02   1.227      0.1063E-01
   82300  0.4115E-01  0.5000E-06 NODE      407014  -3.9%  0.5002E+08  0.3868E+08  0.4136E+06 -0.4492E+05  0.8734E-02   1.227      0.1063E-01
   82400  0.4120E-01  0.5000E-06 NODE      139307  -3.9%  0.5006E+08  0.3863E+08  0.4171E+06 -0.4503E+05  0.8735E-02   1.227      0.1063E-01
   CYCLE    TIME      TIME-STEP  ELEMENT          ERROR  I-ENERGY    K-ENERGY T  K-ENERGY R  EXT-WORK     MAS.ERR     TOTAL MASS  MASS ADDED
   82500  0.4125E-01  0.5000E-06 NODE     9924522  -3.9%  0.5010E+08  0.3858E+08  0.4169E+06 -0.4508E+05  0.8736E-02   1.227      0.1063E-01
   82600  0.4130E-01  0.5000E-06 NODE    10040217  -3.9%  0.5015E+08  0.3854E+08  0.4171E+06 -0.4513E+05  0.8737E-02   1.227      0.1063E-01
   82700  0.4135E-01  0.5000E-06 NODE    11026732  -3.9%  0.5020E+08  0.3848E+08  0.4195E+06 -0.4516E+05  0.8738E-02   1.227      0.1063E-01
   82800  0.4140E-01  0.5000E-06 NODE    11189558  -3.9%  0.5024E+08  0.3843E+08  0.4229E+06 -0.4521E+05  0.8739E-02   1.227      0.1063E-01
   82900  0.4145E-01  0.5000E-06 NODE    10786049  -3.9%  0.5028E+08  0.3838E+08  0.4261E+06 -0.4528E+05  0.8740E-02   1.227      0.1063E-01
   83000  0.4150E-01  0.5000E-06 NODE      191660  -3.9%  0.5033E+08  0.3833E+08  0.4280E+06 -0.4533E+05  0.8741E-02   1.227      0.1063E-01
   83100  0.4155E-01  0.5000E-06 NODE    10013665  -3.9%  0.5038E+08  0.3828E+08  0.4283E+06 -0.4538E+05  0.8742E-02   1.227      0.1064E-01
   83200  0.4160E-01  0.5000E-06 NODE    10013669  -3.9%  0.5043E+08  0.3823E+08  0.4273E+06 -0.4544E+05  0.8743E-02   1.227      0.1064E-01
   83300  0.4165E-01  0.5000E-06 NODE    10864017  -3.9%  0.5047E+08  0.3818E+08  0.4300E+06 -0.4548E+05  0.8744E-02   1.227      0.1064E-01
   83400  0.4170E-01  0.5000E-06 NODE    10878838  -3.9%  0.5052E+08  0.3813E+08  0.4334E+06 -0.4556E+05  0.8745E-02   1.227      0.1064E-01
 **WARNING MINIMUM TIME STEP   0.4278E-06 IN INTERFACE         16(DTMIN=  0.5000E-06)
   DELETE SECONDARY NODE     143666 FROM INTERFACE         16
   MAIN NODES :     508024  11156363  11156365  11156369
 **WARNING MINIMUM TIME STEP   0.4279E-06 IN INTERFACE         16(DTMIN=  0.5000E-06)
   DELETE SECONDARY NODE     143666 FROM INTERFACE         16
   MAIN NODES :     508025  11156369  11156365  11156368
   83500  0.4175E-01  0.5000E-06 NODE    10813452  -3.9%  0.5056E+08  0.3808E+08  0.4337E+06 -0.4564E+05  0.8747E-02   1.227      0.1064E-01
 **WARNING MINIMUM TIME STEP   0.3702E-06 IN INTERFACE         16(DTMIN=  0.5000E-06)
   DELETE SECONDARY NODE      49027 FROM INTERFACE         16
   MAIN NODES :     191187  10876082  10876080  10876068
 **WARNING MINIMUM TIME STEP   0.3702E-06 IN INTERFACE         16(DTMIN=  0.5000E-06)
   DELETE SECONDARY NODE      49027 FROM INTERFACE         16
   MAIN NODES :     191187  10876167  10876165  10876082
   83600  0.4180E-01  0.5000E-06 NODE         841  -3.9%  0.5061E+08  0.3803E+08  0.4351E+06 -0.4569E+05  0.8749E-02   1.227      0.1064E-01
   83700  0.4185E-01  0.5000E-06 NODE      157580  -3.9%  0.5066E+08  0.3797E+08  0.4378E+06 -0.4571E+05  0.8750E-02   1.227      0.1065E-01
   83800  0.4190E-01  0.5000E-06 NODE       50670  -3.9%  0.5071E+08  0.3792E+08  0.4375E+06 -0.4574E+05  0.8751E-02   1.227      0.1065E-01
   83900  0.4195E-01  0.5000E-06 NODE      192055  -3.9%  0.5076E+08  0.3787E+08  0.4361E+06 -0.4577E+05  0.8753E-02   1.227      0.1065E-01
   84000  0.4200E-01  0.5000E-06 NODE    10040217  -3.9%  0.5081E+08  0.3781E+08  0.4401E+06 -0.4579E+05  0.8754E-02   1.227      0.1065E-01
   84100  0.4205E-01  0.5000E-06 NODE    10040217  -4.0%  0.5087E+08  0.3775E+08  0.4429E+06 -0.4581E+05  0.8755E-02   1.227      0.1065E-01
   84200  0.4210E-01  0.5000E-06 NODE    11029560  -4.0%  0.5092E+08  0.3770E+08  0.4450E+06 -0.4583E+05  0.8756E-02   1.227      0.1065E-01
   84300  0.4215E-01  0.5000E-06 NODE    11216442  -4.0%  0.5097E+08  0.3764E+08  0.4468E+06 -0.4585E+05  0.8757E-02   1.227      0.1065E-01
   84400  0.4220E-01  0.5000E-06 NODE    11182438  -4.0%  0.5103E+08  0.3758E+08  0.4462E+06 -0.4587E+05  0.8758E-02   1.227      0.1065E-01
   84500  0.4225E-01  0.5000E-06 NODE    11022352  -4.0%  0.5108E+08  0.3752E+08  0.4471E+06 -0.4588E+05  0.8759E-02   1.227      0.1066E-01
   84600  0.4230E-01  0.5000E-06 NODE    11182438  -4.0%  0.5114E+08  0.3747E+08  0.4456E+06 -0.4590E+05  0.8760E-02   1.227      0.1066E-01
   84700  0.4235E-01  0.5000E-06 NODE    11182438  -4.0%  0.5119E+08  0.3741E+08  0.4434E+06 -0.4591E+05  0.8761E-02   1.227      0.1066E-01
   84800  0.4240E-01  0.5000E-06 NODE    11182438  -4.0%  0.5125E+08  0.3735E+08  0.4442E+06 -0.4593E+05  0.8762E-02   1.227      0.1066E-01
   84900  0.4245E-01  0.5000E-06 NODE    11031042  -4.0%  0.5130E+08  0.3729E+08  0.4451E+06 -0.4594E+05  0.8763E-02   1.227      0.1066E-01
   85000  0.4250E-01  0.5000E-06 NODE    11182438  -4.0%  0.5135E+08  0.3723E+08  0.4481E+06 -0.4597E+05  0.8763E-02   1.227      0.1066E-01
   85100  0.4255E-01  0.5000E-06 NODE         838  -4.0%  0.5141E+08  0.3717E+08  0.4494E+06 -0.4600E+05  0.8764E-02   1.227      0.1066E-01
   85200  0.4260E-01  0.5000E-06 NODE    10785854  -4.0%  0.5146E+08  0.3712E+08  0.4496E+06 -0.4603E+05  0.8765E-02   1.227      0.1066E-01
   85300  0.4265E-01  0.5000E-06 NODE    11216570  -4.0%  0.5152E+08  0.3706E+08  0.4492E+06 -0.4605E+05  0.8766E-02   1.227      0.1066E-01
   85400  0.4270E-01  0.5000E-06 NODE    10786049  -4.0%  0.5158E+08  0.3699E+08  0.4485E+06 -0.4606E+05  0.8767E-02   1.227      0.1067E-01
   85500  0.4275E-01  0.5000E-06 NODE    10040223  -4.0%  0.5164E+08  0.3693E+08  0.4480E+06 -0.4609E+05  0.8768E-02   1.227      0.1067E-01
 **WARNING MINIMUM TIME STEP   0.4458E-06 IN INTERFACE         13(DTMIN=  0.5000E-06)
   DELETE SECONDARY NODE     149476 FROM INTERFACE         13
   MAIN NODES :     139499  10756177  10756175  10756148
   85600  0.4280E-01  0.5000E-06 NODE    11031605  -4.0%  0.5169E+08  0.3687E+08  0.4472E+06 -0.4613E+05  0.8769E-02   1.227      0.1067E-01
   85700  0.4285E-01  0.5000E-06 NODE      150393  -4.0%  0.5175E+08  0.3681E+08  0.4457E+06 -0.4614E+05  0.8770E-02   1.227      0.1067E-01
 **WARNING MINIMUM TIME STEP   0.4700E-06 IN INTERFACE         13(DTMIN=  0.5000E-06)
   DELETE SECONDARY NODE     149129 FROM INTERFACE         13
   MAIN NODES :     159835  10819241  10819240  10819237
   85800  0.4290E-01  0.5000E-06 NODE      345794  -4.0%  0.5182E+08  0.3675E+08  0.4442E+06 -0.4616E+05  0.8771E-02   1.227      0.1067E-01
 **WARNING MINIMUM TIME STEP   0.3770E-06 IN INTERFACE         13(DTMIN=  0.5000E-06)
   DELETE SECONDARY NODE     149291 FROM INTERFACE         13
   MAIN NODES :     159851  10820052  10820080  10820083
   85900  0.4295E-01  0.5000E-06 NODE    11108410  -4.0%  0.5188E+08  0.3668E+08  0.4428E+06 -0.4620E+05  0.8772E-02   1.227      0.1067E-01
   86000  0.4300E-01  0.5000E-06 NODE      150393  -4.0%  0.5194E+08  0.3662E+08  0.4434E+06 -0.4622E+05  0.8773E-02   1.227      0.1067E-01
   86100  0.4305E-01  0.5000E-06 NODE      191666  -4.0%  0.5200E+08  0.3655E+08  0.4438E+06 -0.4623E+05  0.8774E-02   1.227      0.1067E-01
 **WARNING MINIMUM TIME STEP   0.4278E-06 IN INTERFACE         15(DTMIN=  0.5000E-06)
   DELETE SECONDARY NODE     138632 FROM INTERFACE         15
   MAIN NODES :     507047  11155877  11155875  11155876
   86200  0.4310E-01  0.5000E-06 NODE      345794  -4.0%  0.5207E+08  0.3649E+08  0.4439E+06 -0.4625E+05  0.8775E-02   1.227      0.1068E-01
   86300  0.4315E-01  0.5000E-06 NODE    10784930  -4.0%  0.5213E+08  0.3642E+08  0.4444E+06 -0.4627E+05  0.8776E-02   1.227      0.1068E-01
   86400  0.4320E-01  0.5000E-06 NODE      345794  -4.0%  0.5219E+08  0.3636E+08  0.4422E+06 -0.4628E+05  0.8777E-02   1.227      0.1068E-01
   86500  0.4325E-01  0.5000E-06 NODE      132331  -4.0%  0.5225E+08  0.3630E+08  0.4397E+06 -0.4629E+05  0.8778E-02   1.227      0.1068E-01
   86600  0.4330E-01  0.5000E-06 NODE      345794  -4.0%  0.5231E+08  0.3624E+08  0.4385E+06 -0.4635E+05  0.8779E-02   1.227      0.1068E-01
   86700  0.4335E-01  0.5000E-06 NODE    11026898  -4.0%  0.5236E+08  0.3618E+08  0.4388E+06 -0.4637E+05  0.8780E-02   1.227      0.1068E-01
   86800  0.4340E-01  0.5000E-06 NODE    10040222  -4.0%  0.5242E+08  0.3612E+08  0.4392E+06 -0.4639E+05  0.8782E-02   1.227      0.1068E-01
   86900  0.4345E-01  0.5000E-06 NODE    11029048  -4.0%  0.5248E+08  0.3606E+08  0.4399E+06 -0.4642E+05  0.8783E-02   1.227      0.1069E-01
   87000  0.4350E-01  0.5000E-06 NODE    10784930  -4.0%  0.5253E+08  0.3600E+08  0.4396E+06 -0.4643E+05  0.8784E-02   1.227      0.1069E-01
   87100  0.4355E-01  0.5000E-06 NODE    10040222  -4.1%  0.5259E+08  0.3594E+08  0.4389E+06 -0.4645E+05  0.8785E-02   1.227      0.1069E-01
   87200  0.4360E-01  0.5000E-06 NODE    10013669  -4.1%  0.5265E+08  0.3588E+08  0.4377E+06 -0.4646E+05  0.8786E-02   1.227      0.1069E-01
   87300  0.4365E-01  0.5000E-06 NODE    10880206  -4.1%  0.5270E+08  0.3582E+08  0.4365E+06 -0.4649E+05  0.8786E-02   1.227      0.1069E-01
   87400  0.4370E-01  0.5000E-06 NODE    11182473  -4.1%  0.5276E+08  0.3576E+08  0.4359E+06 -0.4655E+05  0.8787E-02   1.227      0.1069E-01
   87500  0.4375E-01  0.5000E-06 NODE    10819788  -4.1%  0.5282E+08  0.3570E+08  0.4358E+06 -0.4659E+05  0.8788E-02   1.227      0.1069E-01
   87600  0.4380E-01  0.5000E-06 NODE    11182473  -4.1%  0.5288E+08  0.3564E+08  0.4347E+06 -0.4661E+05  0.8789E-02   1.227      0.1069E-01
   87700  0.4385E-01  0.5000E-06 NODE    11182473  -4.1%  0.5294E+08  0.3558E+08  0.4335E+06 -0.4665E+05  0.8789E-02   1.227      0.1069E-01
   87800  0.4390E-01  0.5000E-06 NODE    10784932  -4.1%  0.5300E+08  0.3552E+08  0.4317E+06 -0.4668E+05  0.8790E-02   1.227      0.1069E-01
   87900  0.4395E-01  0.5000E-06 NODE    10013669  -4.1%  0.5306E+08  0.3546E+08  0.4295E+06 -0.4671E+05  0.8791E-02   1.227      0.1069E-01
   CYCLE    TIME      TIME-STEP  ELEMENT          ERROR  I-ENERGY    K-ENERGY T  K-ENERGY R  EXT-WORK     MAS.ERR     TOTAL MASS  MASS ADDED
   88000  0.4400E-01  0.5000E-06 NODE    10013669  -4.1%  0.5312E+08  0.3540E+08  0.4278E+06 -0.4672E+05  0.8791E-02   1.227      0.1070E-01
   88100  0.4405E-01  0.5000E-06 NODE    10784932  -4.1%  0.5317E+08  0.3534E+08  0.4288E+06 -0.4674E+05  0.8792E-02   1.227      0.1070E-01
   88200  0.4410E-01  0.5000E-06 NODE    10013669  -4.1%  0.5323E+08  0.3527E+08  0.4314E+06 -0.4675E+05  0.8793E-02   1.227      0.1070E-01
   88300  0.4415E-01  0.5000E-06 NODE      248539  -4.1%  0.5329E+08  0.3521E+08  0.4338E+06 -0.4677E+05  0.8794E-02   1.227      0.1070E-01
   88400  0.4420E-01  0.5000E-06 NODE    10236538  -4.1%  0.5335E+08  0.3514E+08  0.4331E+06 -0.4680E+05  0.8795E-02   1.227      0.1070E-01
   88500  0.4425E-01  0.5000E-06 NODE    10880206  -4.1%  0.5342E+08  0.3508E+08  0.4300E+06 -0.4683E+05  0.8796E-02   1.227      0.1070E-01
 **WARNING MINIMUM TIME STEP   0.4980E-06 IN INTERFACE         16(DTMIN=  0.5000E-06)
   DELETE SECONDARY NODE   10237101 FROM INTERFACE         16
   MAIN NODES :     508095  11156673  11156675  11156642
   88600  0.4430E-01  0.5000E-06 NODE    10223727  -4.1%  0.5348E+08  0.3501E+08  0.4284E+06 -0.4689E+05  0.8797E-02   1.227      0.1070E-01
   88700  0.4435E-01  0.5000E-06 NODE      158200  -4.1%  0.5354E+08  0.3495E+08  0.4267E+06 -0.4695E+05  0.8799E-02   1.227      0.1070E-01
   88800  0.4440E-01  0.5000E-06 NODE    11031440  -4.1%  0.5360E+08  0.3488E+08  0.4256E+06 -0.4697E+05  0.8799E-02   1.227      0.1071E-01
   88900  0.4445E-01  0.5000E-06 NODE    11031440  -4.1%  0.5366E+08  0.3482E+08  0.4263E+06 -0.4699E+05  0.8800E-02   1.227      0.1071E-01
   89000  0.4450E-01  0.5000E-06 NODE     9925489  -4.1%  0.5372E+08  0.3476E+08  0.4267E+06 -0.4701E+05  0.8801E-02   1.227      0.1071E-01
   89100  0.4455E-01  0.5000E-06 NODE      150552  -4.1%  0.5379E+08  0.3469E+08  0.4237E+06 -0.4702E+05  0.8802E-02   1.227      0.1071E-01
   89200  0.4460E-01  0.5000E-06 NODE      150552  -4.1%  0.5385E+08  0.3462E+08  0.4208E+06 -0.4704E+05  0.8803E-02   1.227      0.1071E-01
   89300  0.4465E-01  0.5000E-06 NODE    11055933  -4.1%  0.5391E+08  0.3456E+08  0.4216E+06 -0.4706E+05  0.8804E-02   1.227      0.1071E-01
 **WARNING MINIMUM TIME STEP   0.1614E-06 IN INTERFACE         16(DTMIN=  0.5000E-06)
   DELETE SECONDARY NODE     306583 FROM INTERFACE         16
   MAIN NODES :      49278  10467733  10477475  10477473
   89400  0.4470E-01  0.5000E-06 NODE    11055933  -4.1%  0.5397E+08  0.3449E+08  0.4221E+06 -0.4708E+05  0.8806E-02   1.227      0.1071E-01
   89500  0.4475E-01  0.5000E-06 NODE    10782339  -4.1%  0.5403E+08  0.3443E+08  0.4216E+06 -0.4709E+05  0.8806E-02   1.227      0.1071E-01
   89600  0.4480E-01  0.5000E-06 NODE    10242403  -4.1%  0.5410E+08  0.3436E+08  0.4219E+06 -0.4711E+05  0.8807E-02   1.227      0.1071E-01
   89700  0.4485E-01  0.5000E-06 NODE    10815837  -4.2%  0.5416E+08  0.3429E+08  0.4230E+06 -0.4712E+05  0.8808E-02   1.227      0.1072E-01
   89800  0.4490E-01  0.5000E-06 NODE    10242403  -4.2%  0.5422E+08  0.3423E+08  0.4215E+06 -0.4713E+05  0.8809E-02   1.227      0.1072E-01
   89900  0.4495E-01  0.5000E-06 NODE    10789045  -4.2%  0.5428E+08  0.3416E+08  0.4221E+06 -0.4716E+05  0.8810E-02   1.227      0.1072E-01
   90000  0.4500E-01  0.5000E-06 NODE    10789045  -4.2%  0.5434E+08  0.3410E+08  0.4212E+06 -0.4721E+05  0.8811E-02   1.227      0.1072E-01
     ANIMATION FILE: NEON1M11A010 WRITTEN
   90100  0.4505E-01  0.5000E-06 NODE    10013380  -4.2%  0.5441E+08  0.3403E+08  0.4206E+06 -0.4723E+05  0.8812E-02   1.227      0.1072E-01
   90200  0.4510E-01  0.5000E-06 NODE    10013380  -4.2%  0.5447E+08  0.3397E+08  0.4207E+06 -0.4730E+05  0.8813E-02   1.227      0.1072E-01
 **WARNING MINIMUM TIME STEP   0.4638E-06 IN INTERFACE         14(DTMIN=  0.5000E-06)
   DELETE SECONDARY NODE   10294403 FROM INTERFACE         14
   MAIN NODES :     319142   9951453   9951450   9950781
 **WARNING MINIMUM TIME STEP   0.4515E-06 IN INTERFACE         14(DTMIN=  0.5000E-06)
   DELETE SECONDARY NODE     431343 FROM INTERFACE         14
   MAIN NODES :     319143   9950777   9950780   9950783
 **WARNING MINIMUM TIME STEP   0.4690E-06 IN INTERFACE          9(DTMIN=  0.5000E-06)
   DELETE SECONDARY NODE     312573 FROM INTERFACE          9
   MAIN NODES :     308535   9934853   9934850   9934852
   90300  0.4515E-01  0.5000E-06 NODE    10013380  -4.2%  0.5453E+08  0.3390E+08  0.4202E+06 -0.4735E+05  0.8814E-02   1.227      0.1072E-01
   90400  0.4520E-01  0.5000E-06 NODE    10013380  -4.2%  0.5459E+08  0.3383E+08  0.4207E+06 -0.4741E+05  0.8815E-02   1.227      0.1072E-01
   90500  0.4525E-01  0.5000E-06 NODE    10789022  -4.2%  0.5466E+08  0.3376E+08  0.4182E+06 -0.4744E+05  0.8816E-02   1.227      0.1072E-01
   90600  0.4530E-01  0.5000E-06 NODE    10520366  -4.2%  0.5473E+08  0.3370E+08  0.4165E+06 -0.4746E+05  0.8816E-02   1.227      0.1073E-01
   90700  0.4535E-01  0.5000E-06 NODE    10789022  -4.2%  0.5479E+08  0.3363E+08  0.4161E+06 -0.4747E+05  0.8817E-02   1.227      0.1073E-01
 **WARNING MINIMUM TIME STEP   0.3770E-06 IN INTERFACE         14(DTMIN=  0.5000E-06)
   DELETE SECONDARY NODE     431273 FROM INTERFACE         14
   MAIN NODES :     318595   9948118   9948120   9948124
 **WARNING MINIMUM TIME STEP   0.3836E-06 IN INTERFACE         14(DTMIN=  0.5000E-06)
   DELETE SECONDARY NODE   10294084 FROM INTERFACE         14
   MAIN NODES :     318595   9948118   9948120   9948124
 **WARNING MINIMUM TIME STEP   0.2769E-06 IN INTERFACE         14(DTMIN=  0.5000E-06)
   DELETE SECONDARY NODE     431272 FROM INTERFACE         14
   MAIN NODES :     318595   9948118   9948120   9948124
   90800  0.4540E-01  0.5000E-06 NODE      192527  -4.2%  0.5485E+08  0.3356E+08  0.4165E+06 -0.4749E+05  0.8818E-02   1.227      0.1073E-01
   90900  0.4545E-01  0.5000E-06 NODE    10242403  -4.2%  0.5492E+08  0.3349E+08  0.4151E+06 -0.4750E+05  0.8819E-02   1.227      0.1073E-01
   91000  0.4550E-01  0.5000E-06 NODE    10781623  -4.2%  0.5498E+08  0.3342E+08  0.4168E+06 -0.4753E+05  0.8821E-02   1.227      0.1073E-01
   91100  0.4555E-01  0.5000E-06 NODE      192527  -4.2%  0.5505E+08  0.3335E+08  0.4164E+06 -0.4754E+05  0.8822E-02   1.227      0.1073E-01
   91200  0.4560E-01  0.5000E-06 NODE      192527  -4.2%  0.5511E+08  0.3328E+08  0.4144E+06 -0.4756E+05  0.8823E-02   1.227      0.1073E-01
   91300  0.4565E-01  0.5000E-06 NODE    10882450  -4.2%  0.5518E+08  0.3322E+08  0.4123E+06 -0.4761E+05  0.8824E-02   1.227      0.1073E-01
   91400  0.4570E-01  0.5000E-06 NODE    10811520  -4.2%  0.5525E+08  0.3315E+08  0.4101E+06 -0.4765E+05  0.8825E-02   1.227      0.1074E-01
   91500  0.4575E-01  0.5000E-06 NODE    10396903  -4.2%  0.5531E+08  0.3308E+08  0.4088E+06 -0.4769E+05  0.8826E-02   1.227      0.1074E-01
   91600  0.4580E-01  0.5000E-06 NODE    10484767  -4.2%  0.5537E+08  0.3301E+08  0.4100E+06 -0.4773E+05  0.8826E-02   1.227      0.1074E-01
 **WARNING MINIMUM TIME STEP   0.4665E-06 IN INTERFACE         16(DTMIN=  0.5000E-06)
   DELETE SECONDARY NODE     306587 FROM INTERFACE         16
   MAIN NODES :      49748  10469618  10469620  10469612
   91700  0.4585E-01  0.5000E-06 NODE    10767205  -4.2%  0.5544E+08  0.3294E+08  0.4108E+06 -0.4774E+05  0.8827E-02   1.227      0.1074E-01
   91800  0.4590E-01  0.5000E-06 NODE    10875762  -4.2%  0.5551E+08  0.3287E+08  0.4093E+06 -0.4776E+05  0.8828E-02   1.227      0.1074E-01
   91900  0.4595E-01  0.5000E-06 NODE    10875762  -4.2%  0.5557E+08  0.3281E+08  0.4084E+06 -0.4779E+05  0.8829E-02   1.227      0.1074E-01
   92000  0.4600E-01  0.5000E-06 NODE    10882406  -4.3%  0.5563E+08  0.3274E+08  0.4078E+06 -0.4782E+05  0.8830E-02   1.227      0.1074E-01
   92100  0.4605E-01  0.5000E-06 NODE    10882406  -4.3%  0.5570E+08  0.3267E+08  0.4080E+06 -0.4785E+05  0.8831E-02   1.227      0.1074E-01
 **WARNING MINIMUM TIME STEP   0.4739E-06 IN INTERFACE         13(DTMIN=  0.5000E-06)
   DELETE SECONDARY NODE     149029 FROM INTERFACE         13
   MAIN NODES :     159409  10818301  10819190  10819192
   92200  0.4610E-01  0.5000E-06 NODE    10882406  -4.3%  0.5576E+08  0.3261E+08  0.4078E+06 -0.4788E+05  0.8832E-02   1.227      0.1075E-01
 **WARNING MINIMUM TIME STEP   0.4560E-06 IN INTERFACE         16(DTMIN=  0.5000E-06)
   DELETE SECONDARY NODE     414021 FROM INTERFACE         16
   MAIN NODES :     508035  11156642  11156675  11156416
   92300  0.4615E-01  0.5000E-06 NODE    11109107  -4.3%  0.5582E+08  0.3254E+08  0.4057E+06 -0.4793E+05  0.8833E-02   1.227      0.1075E-01
 **WARNING MINIMUM TIME STEP   0.4445E-06 IN INTERFACE         14(DTMIN=  0.5000E-06)
   DELETE SECONDARY NODE   10294409 FROM INTERFACE         14
   MAIN NODES :     319143   9950783   9951060   9951036
   92400  0.4620E-01  0.5000E-06 NODE    10787882  -4.3%  0.5589E+08  0.3247E+08  0.4064E+06 -0.4799E+05  0.8834E-02   1.227      0.1075E-01
   92500  0.4625E-01  0.5000E-06 NODE    10223727  -4.3%  0.5595E+08  0.3241E+08  0.4059E+06 -0.4802E+05  0.8835E-02   1.227      0.1075E-01
   92600  0.4630E-01  0.5000E-06 NODE       49255  -4.3%  0.5601E+08  0.3234E+08  0.4046E+06 -0.4804E+05  0.8836E-02   1.227      0.1075E-01
 **WARNING MINIMUM TIME STEP   0.3756E-06 IN INTERFACE         13(DTMIN=  0.5000E-06)
   DELETE SECONDARY NODE     238200 FROM INTERFACE         13
   MAIN NODES :     245487  11042578  11042575  11042577
 **WARNING MINIMUM TIME STEP   0.3756E-06 IN INTERFACE         15(DTMIN=  0.5000E-06)
   DELETE SECONDARY NODE     238200 FROM INTERFACE         15
   MAIN NODES :     245487  11042578  11042575  11042577
   92700  0.4635E-01  0.5000E-06 NODE    10880125  -4.3%  0.5608E+08  0.3227E+08  0.4035E+06 -0.4806E+05  0.8837E-02   1.227      0.1075E-01
 **WARNING MINIMUM TIME STEP   0.4712E-06 IN INTERFACE         15(DTMIN=  0.5000E-06)
   DELETE SECONDARY NODE     194370 FROM INTERFACE         15
   MAIN NODES :     189538  10870063  10870060  10870039
 **WARNING MINIMUM TIME STEP   0.4712E-06 IN INTERFACE         17(DTMIN=  0.5000E-06)
   DELETE SECONDARY NODE     194370 FROM INTERFACE         17
   MAIN NODES :     189538  10870063  10870060  10870039
   92800  0.4640E-01  0.5000E-06 NODE      418197  -4.3%  0.5614E+08  0.3220E+08  0.4038E+06 -0.4808E+05  0.8838E-02   1.227      0.1075E-01
   92900  0.4645E-01  0.5000E-06 NODE    10882406  -4.3%  0.5621E+08  0.3214E+08  0.4024E+06 -0.4812E+05  0.8840E-02   1.227      0.1075E-01
   93000  0.4650E-01  0.5000E-06 NODE    11027305  -4.3%  0.5628E+08  0.3207E+08  0.3991E+06 -0.4816E+05  0.8841E-02   1.227      0.1076E-01
   93100  0.4655E-01  0.5000E-06 NODE      191117  -4.3%  0.5634E+08  0.3200E+08  0.3978E+06 -0.4818E+05  0.8842E-02   1.227      0.1076E-01
   93200  0.4660E-01  0.5000E-06 NODE    10875763  -4.3%  0.5641E+08  0.3193E+08  0.3991E+06 -0.4819E+05  0.8842E-02   1.227      0.1076E-01
   93300  0.4665E-01  0.5000E-06 NODE      148162  -4.3%  0.5647E+08  0.3186E+08  0.3977E+06 -0.4821E+05  0.8843E-02   1.227      0.1076E-01
 **WARNING MINIMUM TIME STEP   0.4992E-06 IN INTERFACE         15(DTMIN=  0.5000E-06)
   DELETE SECONDARY NODE   10251563 FROM INTERFACE         15
   MAIN NODES :     507121  11156178  11156175  11156177
   93400  0.4670E-01  0.5000E-06 NODE    10875765  -4.3%  0.5653E+08  0.3180E+08  0.3973E+06 -0.4824E+05  0.8845E-02   1.227      0.1076E-01
   CYCLE    TIME      TIME-STEP  ELEMENT          ERROR  I-ENERGY    K-ENERGY T  K-ENERGY R  EXT-WORK     MAS.ERR     TOTAL MASS  MASS ADDED
   93500  0.4675E-01  0.5000E-06 NODE    10467424  -4.3%  0.5659E+08  0.3173E+08  0.3979E+06 -0.4828E+05  0.8845E-02   1.227      0.1076E-01
   93600  0.4680E-01  0.5000E-06 NODE    10254922  -4.3%  0.5666E+08  0.3167E+08  0.3994E+06 -0.4830E+05  0.8846E-02   1.227      0.1076E-01
   93700  0.4685E-01  0.5000E-06 NODE    10862085  -4.3%  0.5671E+08  0.3160E+08  0.4012E+06 -0.4831E+05  0.8847E-02   1.227      0.1076E-01
   93800  0.4690E-01  0.5000E-06 NODE    10254923  -4.3%  0.5678E+08  0.3153E+08  0.3999E+06 -0.4834E+05  0.8848E-02   1.227      0.1076E-01
   93900  0.4695E-01  0.5000E-06 NODE      148162  -4.3%  0.5684E+08  0.3147E+08  0.3992E+06 -0.4839E+05  0.8849E-02   1.227      0.1077E-01
   94000  0.4700E-01  0.5000E-06 NODE      255646  -4.3%  0.5690E+08  0.3140E+08  0.3976E+06 -0.4845E+05  0.8850E-02   1.227      0.1077E-01
   94100  0.4705E-01  0.5000E-06 NODE      413731  -4.3%  0.5697E+08  0.3134E+08  0.3970E+06 -0.4850E+05  0.8851E-02   1.227      0.1077E-01
   94200  0.4710E-01  0.5000E-06 NODE      410263  -4.3%  0.5703E+08  0.3127E+08  0.3946E+06 -0.4853E+05  0.8851E-02   1.227      0.1077E-01
   94300  0.4715E-01  0.5000E-06 NODE     9904827  -4.3%  0.5709E+08  0.3121E+08  0.3954E+06 -0.4855E+05  0.8852E-02   1.227      0.1077E-01
   94400  0.4720E-01  0.5000E-06 NODE      148162  -4.4%  0.5715E+08  0.3114E+08  0.3933E+06 -0.4858E+05  0.8852E-02   1.227      0.1077E-01
 **WARNING MINIMUM TIME STEP   0.4574E-06 IN INTERFACE         15(DTMIN=  0.5000E-06)
   DELETE SECONDARY NODE     417341 FROM INTERFACE         15
   MAIN NODES :     507121  11156177  11156180  11156183
   94500  0.4725E-01  0.5000E-06 NODE      148162  -4.4%  0.5721E+08  0.3108E+08  0.3920E+06 -0.4863E+05  0.8853E-02   1.227      0.1077E-01
   94600  0.4730E-01  0.5000E-06 NODE      187607  -4.4%  0.5728E+08  0.3101E+08  0.3911E+06 -0.4868E+05  0.8854E-02   1.227      0.1077E-01
   94700  0.4735E-01  0.5000E-06 NODE    10738655  -4.4%  0.5734E+08  0.3094E+08  0.3919E+06 -0.4869E+05  0.8855E-02   1.227      0.1077E-01
   94800  0.4740E-01  0.5000E-06 NODE    10017342  -4.4%  0.5740E+08  0.3087E+08  0.3937E+06 -0.4873E+05  0.8856E-02   1.227      0.1077E-01
   94900  0.4745E-01  0.5000E-06 NODE    10738655  -4.4%  0.5746E+08  0.3081E+08  0.3944E+06 -0.4874E+05  0.8857E-02   1.227      0.1078E-01
   95000  0.4750E-01  0.5000E-06 NODE    10738655  -4.4%  0.5753E+08  0.3074E+08  0.3937E+06 -0.4876E+05  0.8858E-02   1.227      0.1078E-01
   95100  0.4755E-01  0.5000E-06 NODE    10738655  -4.4%  0.5759E+08  0.3068E+08  0.3927E+06 -0.4878E+05  0.8858E-02   1.227      0.1078E-01
   95200  0.4760E-01  0.5000E-06 NODE    11063067  -4.4%  0.5765E+08  0.3061E+08  0.3924E+06 -0.4880E+05  0.8859E-02   1.227      0.1078E-01
   95300  0.4765E-01  0.5000E-06 NODE    10738659  -4.4%  0.5771E+08  0.3055E+08  0.3911E+06 -0.4885E+05  0.8860E-02   1.227      0.1078E-01
   95400  0.4770E-01  0.5000E-06 NODE    10817693  -4.4%  0.5777E+08  0.3048E+08  0.3900E+06 -0.4886E+05  0.8861E-02   1.227      0.1078E-01
   95500  0.4775E-01  0.5000E-06 NODE    10819158  -4.4%  0.5783E+08  0.3042E+08  0.3903E+06 -0.4888E+05  0.8861E-02   1.227      0.1078E-01
   95600  0.4780E-01  0.5000E-06 NODE    10738659  -4.4%  0.5789E+08  0.3036E+08  0.3907E+06 -0.4891E+05  0.8862E-02   1.227      0.1078E-01
   95700  0.4785E-01  0.5000E-06 NODE    10738655  -4.4%  0.5795E+08  0.3029E+08  0.3913E+06 -0.4896E+05  0.8863E-02   1.227      0.1078E-01
   95800  0.4790E-01  0.5000E-06 NODE    10738655  -4.4%  0.5801E+08  0.3022E+08  0.3930E+06 -0.4900E+05  0.8864E-02   1.227      0.1078E-01
   95900  0.4795E-01  0.5000E-06 NODE    10223740  -4.4%  0.5807E+08  0.3016E+08  0.3924E+06 -0.4904E+05  0.8864E-02   1.227      0.1078E-01
   96000  0.4800E-01  0.5000E-06 NODE    10877320  -4.4%  0.5814E+08  0.3009E+08  0.3924E+06 -0.4905E+05  0.8865E-02   1.227      0.1078E-01
   96100  0.4805E-01  0.5000E-06 NODE    10875807  -4.4%  0.5820E+08  0.3002E+08  0.3917E+06 -0.4907E+05  0.8866E-02   1.227      0.1079E-01
   96200  0.4810E-01  0.5000E-06 NODE    10467643  -4.4%  0.5826E+08  0.2995E+08  0.3918E+06 -0.4911E+05  0.8866E-02   1.227      0.1079E-01
   96300  0.4815E-01  0.5000E-06 NODE    10877312  -4.4%  0.5833E+08  0.2989E+08  0.3916E+06 -0.4913E+05  0.8867E-02   1.227      0.1079E-01
   96400  0.4820E-01  0.5000E-06 NODE    10163094  -4.4%  0.5839E+08  0.2981E+08  0.3890E+06 -0.4917E+05  0.8868E-02   1.227      0.1079E-01
 **WARNING MINIMUM TIME STEP   0.3759E-06 IN INTERFACE         15(DTMIN=  0.5000E-06)
   DELETE SECONDARY NODE     306518 FROM INTERFACE         15
   MAIN NODES :     247073  11049158  11049165  11049169
 **WARNING MINIMUM TIME STEP   0.3759E-06 IN INTERFACE         15(DTMIN=  0.5000E-06)
   DELETE SECONDARY NODE     306518 FROM INTERFACE         15
   MAIN NODES :     247073  11049169  11049670  11049672
 **WARNING MINIMUM TIME STEP   0.4166E-06 IN INTERFACE         16(DTMIN=  0.5000E-06)
   DELETE SECONDARY NODE      51621 FROM INTERFACE         16
   MAIN NODES :     186054  10861128  10861205  10861198
   96500  0.4825E-01  0.5000E-06 NODE    10819128  -4.5%  0.5846E+08  0.2975E+08  0.3871E+06 -0.4920E+05  0.8870E-02   1.227      0.1079E-01
   96600  0.4830E-01  0.5000E-06 NODE      410246  -4.5%  0.5852E+08  0.2968E+08  0.3886E+06 -0.4923E+05  0.8871E-02   1.227      0.1079E-01
   96700  0.4835E-01  0.5000E-06 NODE    10877335  -4.5%  0.5858E+08  0.2961E+08  0.3894E+06 -0.4925E+05  0.8872E-02   1.227      0.1079E-01
   96800  0.4840E-01  0.5000E-06 NODE    10877335  -4.5%  0.5865E+08  0.2954E+08  0.3894E+06 -0.4927E+05  0.8873E-02   1.227      0.1079E-01
   96900  0.4845E-01  0.5000E-06 NODE    11027343  -4.5%  0.5871E+08  0.2948E+08  0.3897E+06 -0.4929E+05  0.8873E-02   1.227      0.1080E-01
   97000  0.4850E-01  0.5000E-06 NODE      411185  -4.5%  0.5877E+08  0.2941E+08  0.3875E+06 -0.4932E+05  0.8874E-02   1.227      0.1080E-01
   97100  0.4855E-01  0.5000E-06 NODE    10877335  -4.5%  0.5884E+08  0.2934E+08  0.3851E+06 -0.4933E+05  0.8875E-02   1.227      0.1080E-01
   97200  0.4860E-01  0.5000E-06 NODE     9924520  -4.5%  0.5890E+08  0.2927E+08  0.3846E+06 -0.4937E+05  0.8875E-02   1.227      0.1080E-01
   97300  0.4865E-01  0.5000E-06 NODE      158542  -4.5%  0.5896E+08  0.2920E+08  0.3841E+06 -0.4942E+05  0.8876E-02   1.227      0.1080E-01
   97400  0.4870E-01  0.5000E-06 NODE      158542  -4.5%  0.5903E+08  0.2914E+08  0.3848E+06 -0.4943E+05  0.8878E-02   1.227      0.1080E-01
   97500  0.4875E-01  0.5000E-06 NODE      148162  -4.5%  0.5909E+08  0.2907E+08  0.3835E+06 -0.4945E+05  0.8879E-02   1.227      0.1080E-01
   97600  0.4880E-01  0.5000E-06 NODE    11027343  -4.5%  0.5915E+08  0.2900E+08  0.3846E+06 -0.4965E+05  0.8879E-02   1.227      0.1080E-01
   97700  0.4885E-01  0.5000E-06 NODE    11027343  -4.5%  0.5921E+08  0.2894E+08  0.3854E+06 -0.4972E+05  0.8880E-02   1.227      0.1080E-01
   97800  0.4890E-01  0.5000E-06 NODE    11031664  -4.5%  0.5927E+08  0.2887E+08  0.3877E+06 -0.4978E+05  0.8881E-02   1.227      0.1080E-01
   97900  0.4895E-01  0.5000E-06 NODE    10811524  -4.5%  0.5933E+08  0.2880E+08  0.3888E+06 -0.4984E+05  0.8882E-02   1.227      0.1081E-01
   98000  0.4900E-01  0.5000E-06 NODE    10875765  -4.5%  0.5939E+08  0.2874E+08  0.3879E+06 -0.4988E+05  0.8883E-02   1.227      0.1081E-01
   98100  0.4905E-01  0.5000E-06 NODE    10877335  -4.5%  0.5945E+08  0.2867E+08  0.3878E+06 -0.4993E+05  0.8884E-02   1.227      0.1081E-01
   98200  0.4910E-01  0.5000E-06 NODE    10877335  -4.5%  0.5951E+08  0.2861E+08  0.3875E+06 -0.4997E+05  0.8885E-02   1.227      0.1081E-01
   98300  0.4915E-01  0.5000E-06 NODE    10877335  -4.6%  0.5958E+08  0.2854E+08  0.3867E+06 -0.5043E+05  0.8886E-02   1.227      0.1081E-01
   98400  0.4920E-01  0.5000E-06 NODE    10875765  -4.6%  0.5964E+08  0.2848E+08  0.3880E+06 -0.5066E+05  0.8887E-02   1.227      0.1081E-01
   98500  0.4925E-01  0.5000E-06 NODE    10877332  -4.6%  0.5970E+08  0.2841E+08  0.3881E+06 -0.5074E+05  0.8888E-02   1.227      0.1081E-01
   98600  0.4930E-01  0.5000E-06 NODE      187572  -4.6%  0.5976E+08  0.2834E+08  0.3888E+06 -0.5076E+05  0.8889E-02   1.227      0.1081E-01
 **WARNING MINIMUM TIME STEP   0.4362E-06 IN INTERFACE         14(DTMIN=  0.5000E-06)
   DELETE SECONDARY NODE     306625 FROM INTERFACE         14
   MAIN NODES :     239612  11029377  11029375  11028548
   98700  0.4935E-01  0.5000E-06 NODE    10877332  -4.6%  0.5982E+08  0.2828E+08  0.3872E+06 -0.5081E+05  0.8890E-02   1.227      0.1082E-01
   98800  0.4940E-01  0.5000E-06 NODE    10877332  -4.6%  0.5988E+08  0.2821E+08  0.3871E+06 -0.5085E+05  0.8891E-02   1.227      0.1082E-01
 **WARNING MINIMUM TIME STEP   0.4820E-06 IN INTERFACE         17(DTMIN=  0.5000E-06)
   DELETE SECONDARY NODE      34749 FROM INTERFACE         17
   MAIN NODES :     126542  10720187  10720185  10720128
   98900  0.4945E-01  0.5000E-06 NODE    10862928  -4.6%  0.5994E+08  0.2815E+08  0.3863E+06 -0.5087E+05  0.8891E-02   1.227      0.1082E-01
   CYCLE    TIME      TIME-STEP  ELEMENT          ERROR  I-ENERGY    K-ENERGY T  K-ENERGY R  EXT-WORK     MAS.ERR     TOTAL MASS  MASS ADDED
   99000  0.4950E-01  0.5000E-06 NODE    11063127  -4.6%  0.6000E+08  0.2808E+08  0.3856E+06 -0.5091E+05  0.8893E-02   1.227      0.1082E-01
   99100  0.4955E-01  0.5000E-06 NODE    10877332  -4.6%  0.6006E+08  0.2802E+08  0.3870E+06 -0.5093E+05  0.8893E-02   1.227      0.1082E-01
   99200  0.4960E-01  0.5000E-06 NODE      417508  -4.6%  0.6012E+08  0.2796E+08  0.3892E+06 -0.5101E+05  0.8895E-02   1.227      0.1082E-01
   99300  0.4965E-01  0.5000E-06 NODE    10877331  -4.6%  0.6018E+08  0.2789E+08  0.3890E+06 -0.5104E+05  0.8896E-02   1.227      0.1082E-01
   99400  0.4970E-01  0.5000E-06 NODE    10879993  -4.6%  0.6024E+08  0.2782E+08  0.3884E+06 -0.5108E+05  0.8897E-02   1.227      0.1082E-01
   99500  0.4975E-01  0.5000E-06 NODE    10877331  -4.6%  0.6030E+08  0.2776E+08  0.3879E+06 -0.5113E+05  0.8898E-02   1.227      0.1082E-01
 **WARNING MINIMUM TIME STEP   0.3873E-06 IN INTERFACE         15(DTMIN=  0.5000E-06)
   DELETE SECONDARY NODE      53103 FROM INTERFACE         15
   MAIN NODES :     128529  10726913  10726910  10726912
   99600  0.4980E-01  0.5000E-06 NODE    10811524  -4.6%  0.6036E+08  0.2770E+08  0.3863E+06 -0.5125E+05  0.8899E-02   1.227      0.1083E-01
   99700  0.4985E-01  0.5000E-06 NODE    10877331  -4.6%  0.6043E+08  0.2763E+08  0.3843E+06 -0.5129E+05  0.8900E-02   1.227      0.1083E-01
   99800  0.4990E-01  0.5000E-06 NODE      192021  -4.6%  0.6049E+08  0.2757E+08  0.3824E+06 -0.5137E+05  0.8901E-02   1.227      0.1083E-01
   99900  0.4995E-01  0.5000E-06 NODE    10817212  -4.6%  0.6055E+08  0.2750E+08  0.3820E+06 -0.5141E+05  0.8901E-02   1.227      0.1083E-01
 **WARNING MINIMUM TIME STEP   0.4704E-06 IN INTERFACE         16(DTMIN=  0.5000E-06)
   DELETE SECONDARY NODE     143543 FROM INTERFACE         16
   MAIN NODES :     508003  11156513  11156510  11156512

     RESTART FILES: NEON1M11_0001_[0001-0001].rst WRITTEN
     -------------

  100000  0.5000E-01  0.5000E-06 NODE    10817211  -4.6%  0.6061E+08  0.2743E+08  0.3827E+06 -0.5145E+05  0.8903E-02   1.227      0.1083E-01
     ANIMATION FILE: NEON1M11A011 WRITTEN
 **WARNING MINIMUM TIME STEP   0.3435E-06 IN INTERFACE         16(DTMIN=  0.5000E-06)
   DELETE SECONDARY NODE     306537 FROM INTERFACE         16
   MAIN NODES :     127365  10722596  11208986  10721589
 **WARNING MINIMUM TIME STEP   0.3435E-06 IN INTERFACE         16(DTMIN=  0.5000E-06)
   DELETE SECONDARY NODE     306537 FROM INTERFACE         16
   MAIN NODES :     127365  10721589  10721585  10721588
  100100  0.5005E-01  0.5000E-06 NODE    10877331  -4.6%  0.6067E+08  0.2737E+08  0.3826E+06 -0.5147E+05  0.8905E-02   1.227      0.1083E-01
  100200  0.5010E-01  0.5000E-06 NODE      159558  -4.6%  0.6073E+08  0.2730E+08  0.3822E+06 -0.5152E+05  0.8906E-02   1.227      0.1083E-01
 **WARNING MINIMUM TIME STEP   0.4295E-06 IN INTERFACE         16(DTMIN=  0.5000E-06)
   DELETE SECONDARY NODE     133349 FROM INTERFACE         16
   MAIN NODES :     509546  11169322  11169325  11169328
  100300  0.5015E-01  0.5000E-06 NODE    10877331  -4.6%  0.6079E+08  0.2724E+08  0.3828E+06 -0.5156E+05  0.8907E-02   1.227      0.1084E-01
  100400  0.5020E-01  0.5000E-06 NODE    10785008  -4.6%  0.6085E+08  0.2717E+08  0.3836E+06 -0.5166E+05  0.8908E-02   1.227      0.1084E-01
  100500  0.5025E-01  0.5000E-06 NODE    10815835  -4.7%  0.6091E+08  0.2711E+08  0.3846E+06 -0.5173E+05  0.8909E-02   1.227      0.1084E-01
  100600  0.5030E-01  0.5000E-06 NODE    10877331  -4.7%  0.6097E+08  0.2704E+08  0.3853E+06 -0.5178E+05  0.8910E-02   1.227      0.1084E-01
  100700  0.5035E-01  0.5000E-06 NODE    10877331  -4.7%  0.6103E+08  0.2698E+08  0.3879E+06 -0.5183E+05  0.8911E-02   1.227      0.1084E-01
  100800  0.5040E-01  0.5000E-06 NODE    11028763  -4.7%  0.6109E+08  0.2692E+08  0.3884E+06 -0.5196E+05  0.8912E-02   1.227      0.1084E-01
  100900  0.5045E-01  0.5000E-06 NODE    10877331  -4.7%  0.6115E+08  0.2685E+08  0.3860E+06 -0.5210E+05  0.8913E-02   1.227      0.1084E-01
  101000  0.5050E-01  0.5000E-06 NODE    11182466  -4.7%  0.6121E+08  0.2679E+08  0.3838E+06 -0.5215E+05  0.8915E-02   1.227      0.1085E-01
  101100  0.5055E-01  0.5000E-06 NODE    10470803  -4.7%  0.6127E+08  0.2672E+08  0.3844E+06 -0.5219E+05  0.8916E-02   1.227      0.1085E-01
  101200  0.5060E-01  0.5000E-06 NODE    11046138  -4.7%  0.6133E+08  0.2666E+08  0.3854E+06 -0.5225E+05  0.8917E-02   1.227      0.1085E-01
  101300  0.5065E-01  0.5000E-06 NODE    10877331  -4.7%  0.6139E+08  0.2659E+08  0.3861E+06 -0.5231E+05  0.8917E-02   1.227      0.1085E-01
 **WARNING MINIMUM TIME STEP   0.4243E-06 IN INTERFACE         16(DTMIN=  0.5000E-06)
   DELETE SECONDARY NODE     239038 FROM INTERFACE         16
   MAIN NODES :     186085  10860993  10860995  10860972
  101400  0.5070E-01  0.5000E-06 NODE    11067905  -4.7%  0.6145E+08  0.2653E+08  0.3869E+06 -0.5240E+05  0.8918E-02   1.227      0.1085E-01
  101500  0.5075E-01  0.5000E-06 NODE      159558  -4.7%  0.6151E+08  0.2647E+08  0.3860E+06 -0.5245E+05  0.8920E-02   1.227      0.1085E-01
  101600  0.5080E-01  0.5000E-06 NODE    10877330  -4.7%  0.6157E+08  0.2640E+08  0.3862E+06 -0.5250E+05  0.8920E-02   1.227      0.1085E-01
 **WARNING MINIMUM TIME STEP   0.3940E-06 IN INTERFACE         16(DTMIN=  0.5000E-06)
   DELETE SECONDARY NODE     306540 FROM INTERFACE         16
   MAIN NODES :     127393  10721749  10721745  10721748
  101700  0.5085E-01  0.5000E-06 NODE    11182466  -4.7%  0.6162E+08  0.2635E+08  0.3880E+06 -0.5254E+05  0.8922E-02   1.227      0.1085E-01
  101800  0.5090E-01  0.5000E-06 NODE    11182466  -4.7%  0.6168E+08  0.2628E+08  0.3879E+06 -0.5261E+05  0.8923E-02   1.227      0.1086E-01
  101900  0.5095E-01  0.5000E-06 NODE    10877330  -4.7%  0.6174E+08  0.2623E+08  0.3870E+06 -0.5273E+05  0.8923E-02   1.227      0.1086E-01
  102000  0.5100E-01  0.5000E-06 NODE    10877330  -4.7%  0.6179E+08  0.2616E+08  0.3858E+06 -0.5276E+05  0.8924E-02   1.227      0.1086E-01
  102100  0.5105E-01  0.5000E-06 NODE    10223649  -4.7%  0.6185E+08  0.2610E+08  0.3870E+06 -0.5280E+05  0.8925E-02   1.227      0.1086E-01
  102200  0.5110E-01  0.5000E-06 NODE    10877330  -4.7%  0.6190E+08  0.2604E+08  0.3894E+06 -0.5287E+05  0.8926E-02   1.227      0.1086E-01
  102300  0.5115E-01  0.5000E-06 NODE    10467499  -4.7%  0.6196E+08  0.2598E+08  0.3902E+06 -0.5293E+05  0.8927E-02   1.227      0.1086E-01
  102400  0.5120E-01  0.5000E-06 NODE    10881658  -4.7%  0.6202E+08  0.2592E+08  0.3904E+06 -0.5298E+05  0.8928E-02   1.227      0.1086E-01
  102500  0.5125E-01  0.5000E-06 NODE    10878516  -4.7%  0.6208E+08  0.2586E+08  0.3909E+06 -0.5300E+05  0.8929E-02   1.227      0.1086E-01
 **WARNING MINIMUM TIME STEP   0.4217E-06 IN INTERFACE         14(DTMIN=  0.5000E-06)
   DELETE SECONDARY NODE     150207 FROM INTERFACE         14
   MAIN NODES :     157829  10814413  10814415  10814377
  102600  0.5130E-01  0.5000E-06 NODE    10782344  -4.7%  0.6213E+08  0.2580E+08  0.3933E+06 -0.5306E+05  0.8930E-02   1.227      0.1086E-01
  102700  0.5135E-01  0.5000E-06 NODE    10878516  -4.7%  0.6219E+08  0.2574E+08  0.3916E+06 -0.5311E+05  0.8931E-02   1.227      0.1086E-01
  102800  0.5140E-01  0.5000E-06 NODE    10878516  -4.7%  0.6225E+08  0.2567E+08  0.3914E+06 -0.5325E+05  0.8932E-02   1.227      0.1087E-01
  102900  0.5145E-01  0.5000E-06 NODE    10878516  -4.8%  0.6231E+08  0.2561E+08  0.3895E+06 -0.5328E+05  0.8932E-02   1.227      0.1087E-01
  103000  0.5150E-01  0.5000E-06 NODE    10878516  -4.8%  0.6237E+08  0.2555E+08  0.3877E+06 -0.5331E+05  0.8934E-02   1.227      0.1087E-01
  103100  0.5155E-01  0.5000E-06 NODE    10878516  -4.8%  0.6243E+08  0.2549E+08  0.3876E+06 -0.5334E+05  0.8934E-02   1.227      0.1087E-01
  103200  0.5160E-01  0.5000E-06 NODE    10878516  -4.8%  0.6249E+08  0.2543E+08  0.3877E+06 -0.5338E+05  0.8935E-02   1.227      0.1087E-01
  103300  0.5165E-01  0.5000E-06 NODE    10878516  -4.8%  0.6254E+08  0.2537E+08  0.3890E+06 -0.5340E+05  0.8936E-02   1.227      0.1087E-01
  103400  0.5170E-01  0.5000E-06 NODE      197130  -4.8%  0.6260E+08  0.2531E+08  0.3895E+06 -0.5343E+05  0.8937E-02   1.227      0.1087E-01
  103500  0.5175E-01  0.5000E-06 NODE      191712  -4.8%  0.6265E+08  0.2525E+08  0.3908E+06 -0.5349E+05  0.8938E-02   1.227      0.1087E-01
  103600  0.5180E-01  0.5000E-06 NODE    10877333  -4.8%  0.6271E+08  0.2519E+08  0.3901E+06 -0.5352E+05  0.8939E-02   1.227      0.1088E-01
  103700  0.5185E-01  0.5000E-06 NODE    10218300  -4.8%  0.6276E+08  0.2513E+08  0.3905E+06 -0.5355E+05  0.8940E-02   1.227      0.1088E-01
  103800  0.5190E-01  0.5000E-06 NODE    10878516  -4.8%  0.6282E+08  0.2507E+08  0.3925E+06 -0.5363E+05  0.8941E-02   1.227      0.1088E-01
  103900  0.5195E-01  0.5000E-06 NODE      150129  -4.8%  0.6287E+08  0.2501E+08  0.3933E+06 -0.5366E+05  0.8942E-02   1.227      0.1088E-01
  104000  0.5200E-01  0.5000E-06 NODE    10470803  -4.8%  0.6293E+08  0.2495E+08  0.3946E+06 -0.5371E+05  0.8943E-02   1.227      0.1088E-01
  104100  0.5205E-01  0.5000E-06 NODE      155958  -4.8%  0.6299E+08  0.2489E+08  0.3941E+06 -0.5374E+05  0.8944E-02   1.227      0.1088E-01
  104200  0.5210E-01  0.5000E-06 NODE    11026858  -4.8%  0.6304E+08  0.2483E+08  0.3941E+06 -0.5378E+05  0.8945E-02   1.227      0.1088E-01
  104300  0.5215E-01  0.5000E-06 NODE    11024160  -4.8%  0.6310E+08  0.2477E+08  0.3971E+06 -0.5383E+05  0.8946E-02   1.227      0.1088E-01
  104400  0.5220E-01  0.5000E-06 NODE    10878551  -4.8%  0.6315E+08  0.2471E+08  0.3971E+06 -0.5386E+05  0.8947E-02   1.227      0.1088E-01
   CYCLE    TIME      TIME-STEP  ELEMENT          ERROR  I-ENERGY    K-ENERGY T  K-ENERGY R  EXT-WORK     MAS.ERR     TOTAL MASS  MASS ADDED
  104500  0.5225E-01  0.5000E-06 NODE    10470803  -4.8%  0.6320E+08  0.2466E+08  0.3963E+06 -0.5391E+05  0.8948E-02   1.227      0.1089E-01
  104600  0.5230E-01  0.5000E-06 NODE      155958  -4.8%  0.6326E+08  0.2460E+08  0.3968E+06 -0.5399E+05  0.8949E-02   1.227      0.1089E-01
  104700  0.5235E-01  0.5000E-06 NODE    11189350  -4.8%  0.6331E+08  0.2454E+08  0.3971E+06 -0.5402E+05  0.8950E-02   1.227      0.1089E-01
  104800  0.5240E-01  0.5000E-06 NODE    11189350  -4.8%  0.6337E+08  0.2448E+08  0.3974E+06 -0.5406E+05  0.8950E-02   1.227      0.1089E-01
  104900  0.5245E-01  0.5000E-06 NODE    10817227  -4.8%  0.6342E+08  0.2442E+08  0.3969E+06 -0.5409E+05  0.8951E-02   1.227      0.1089E-01
  105000  0.5250E-01  0.5000E-06 NODE      189223  -4.8%  0.6348E+08  0.2437E+08  0.3980E+06 -0.5413E+05  0.8952E-02   1.227      0.1089E-01
  105100  0.5255E-01  0.5000E-06 NODE    10817227  -4.8%  0.6353E+08  0.2431E+08  0.4007E+06 -0.5416E+05  0.8952E-02   1.227      0.1089E-01
  105200  0.5260E-01  0.5000E-06 NODE    10817227  -4.8%  0.6358E+08  0.2425E+08  0.4011E+06 -0.5422E+05  0.8954E-02   1.227      0.1089E-01
  105300  0.5265E-01  0.5000E-06 NODE      407579  -4.8%  0.6363E+08  0.2420E+08  0.4021E+06 -0.5430E+05  0.8955E-02   1.227      0.1089E-01
 **WARNING MINIMUM TIME STEP   0.4608E-06 IN INTERFACE         15(DTMIN=  0.5000E-06)
   DELETE SECONDARY NODE     185016 FROM INTERFACE         15
   MAIN NODES :     507059  11155892  11155895  11155898
  105400  0.5270E-01  0.5000E-06 NODE      132912  -4.8%  0.6369E+08  0.2414E+08  0.4027E+06 -0.5437E+05  0.8955E-02   1.227      0.1089E-01
  105500  0.5275E-01  0.5000E-06 NODE    11110810  -4.8%  0.6374E+08  0.2409E+08  0.4003E+06 -0.5442E+05  0.8956E-02   1.227      0.1090E-01
  105600  0.5280E-01  0.5000E-06 NODE    10470803  -4.8%  0.6379E+08  0.2403E+08  0.3995E+06 -0.5444E+05  0.8957E-02   1.227      0.1090E-01
 **WARNING MINIMUM TIME STEP   0.4566E-06 IN INTERFACE         16(DTMIN=  0.5000E-06)
   DELETE SECONDARY NODE     143715 FROM INTERFACE         16
   MAIN NODES :     246113  11048727  11048740  11048743
  105700  0.5285E-01  0.5000E-06 NODE      159557  -4.9%  0.6384E+08  0.2398E+08  0.3985E+06 -0.5449E+05  0.8958E-02   1.227      0.1090E-01
  105800  0.5290E-01  0.5000E-06 NODE    10881658  -4.9%  0.6389E+08  0.2392E+08  0.3998E+06 -0.5452E+05  0.8959E-02   1.227      0.1090E-01
 **WARNING MINIMUM TIME STEP   0.4801E-06 IN INTERFACE         16(DTMIN=  0.5000E-06)
   DELETE SECONDARY NODE     306584 FROM INTERFACE         16
   MAIN NODES :     127348  10721643  10721640  10721519
  105900  0.5295E-01  0.5000E-06 NODE    10817227  -4.9%  0.6395E+08  0.2387E+08  0.3986E+06 -0.5454E+05  0.8960E-02   1.227      0.1090E-01
  106000  0.5300E-01  0.5000E-06 NODE    10218348  -4.9%  0.6399E+08  0.2382E+08  0.3983E+06 -0.5460E+05  0.8960E-02   1.227      0.1090E-01
  106100  0.5305E-01  0.5000E-06 NODE    11048515  -4.9%  0.6404E+08  0.2377E+08  0.3989E+06 -0.5463E+05  0.8962E-02   1.227      0.1090E-01
  106200  0.5310E-01  0.5000E-06 NODE      191733  -4.9%  0.6409E+08  0.2371E+08  0.4002E+06 -0.5466E+05  0.8962E-02   1.227      0.1090E-01
  106300  0.5315E-01  0.5000E-06 NODE    10218345  -4.9%  0.6414E+08  0.2366E+08  0.4022E+06 -0.5470E+05  0.8963E-02   1.227      0.1090E-01
  106400  0.5320E-01  0.5000E-06 NODE      191696  -4.9%  0.6418E+08  0.2361E+08  0.4046E+06 -0.5473E+05  0.8964E-02   1.227      0.1091E-01
  106500  0.5325E-01  0.5000E-06 NODE    10817227  -4.9%  0.6423E+08  0.2356E+08  0.4048E+06 -0.5477E+05  0.8964E-02   1.227      0.1091E-01
 **WARNING MINIMUM TIME STEP   0.4692E-06 IN INTERFACE         15(DTMIN=  0.5000E-06)
   DELETE SECONDARY NODE      53075 FROM INTERFACE         15
   MAIN NODES :     128877  10728588  10728590  10728594
  106600  0.5330E-01  0.5000E-06 NODE    10218348  -4.9%  0.6428E+08  0.2351E+08  0.4033E+06 -0.5478E+05  0.8966E-02   1.227      0.1091E-01
  106700  0.5335E-01  0.5000E-06 NODE    10218348  -4.9%  0.6433E+08  0.2346E+08  0.4019E+06 -0.5480E+05  0.8967E-02   1.227      0.1091E-01
  106800  0.5340E-01  0.5000E-06 NODE    11211942  -4.9%  0.6437E+08  0.2341E+08  0.4017E+06 -0.5481E+05  0.8968E-02   1.227      0.1091E-01
  106900  0.5345E-01  0.5000E-06 NODE    10218348  -4.9%  0.6442E+08  0.2336E+08  0.4027E+06 -0.5485E+05  0.8969E-02   1.227      0.1091E-01
 **WARNING MINIMUM TIME STEP   0.4322E-06 IN INTERFACE         15(DTMIN=  0.5000E-06)
   DELETE SECONDARY NODE     197155 FROM INTERFACE         15
   MAIN NODES :     189465  10869697  10869695  10869683
 **WARNING MINIMUM TIME STEP   0.4322E-06 IN INTERFACE         17(DTMIN=  0.5000E-06)
   DELETE SECONDARY NODE     197155 FROM INTERFACE         17
   MAIN NODES :     189465  10869697  10869695  10869683
  107000  0.5350E-01  0.5000E-06 NODE    10254753  -4.9%  0.6447E+08  0.2331E+08  0.4043E+06 -0.5488E+05  0.8970E-02   1.227      0.1091E-01
  107100  0.5355E-01  0.5000E-06 NODE    10218348  -4.9%  0.6451E+08  0.2326E+08  0.4059E+06 -0.5491E+05  0.8971E-02   1.227      0.1091E-01
  107200  0.5360E-01  0.5000E-06 NODE    10467643  -4.9%  0.6456E+08  0.2321E+08  0.4079E+06 -0.5497E+05  0.8972E-02   1.227      0.1092E-01
  107300  0.5365E-01  0.5000E-06 NODE    10218348  -4.9%  0.6460E+08  0.2316E+08  0.4067E+06 -0.5505E+05  0.8973E-02   1.227      0.1092E-01
  107400  0.5370E-01  0.5000E-06 NODE    10218348  -4.9%  0.6465E+08  0.2311E+08  0.4075E+06 -0.5511E+05  0.8975E-02   1.227      0.1092E-01
  107500  0.5375E-01  0.5000E-06 NODE    10218348  -4.9%  0.6469E+08  0.2307E+08  0.4082E+06 -0.5519E+05  0.8976E-02   1.227      0.1092E-01
  107600  0.5380E-01  0.5000E-06 NODE    10218348  -4.9%  0.6473E+08  0.2302E+08  0.4100E+06 -0.5522E+05  0.8977E-02   1.227      0.1092E-01
  107700  0.5385E-01  0.5000E-06 NODE    10803378  -4.9%  0.6477E+08  0.2297E+08  0.4114E+06 -0.5525E+05  0.8978E-02   1.227      0.1092E-01
  107800  0.5390E-01  0.5000E-06 NODE      176627  -4.9%  0.6481E+08  0.2293E+08  0.4122E+06 -0.5528E+05  0.8979E-02   1.228      0.1092E-01
  107900  0.5395E-01  0.5000E-06 NODE    10784943  -4.9%  0.6486E+08  0.2288E+08  0.4109E+06 -0.5530E+05  0.8980E-02   1.228      0.1092E-01
  108000  0.5400E-01  0.5000E-06 NODE      191393  -4.9%  0.6490E+08  0.2284E+08  0.4091E+06 -0.5533E+05  0.8981E-02   1.228      0.1093E-01
  108100  0.5405E-01  0.5000E-06 NODE    10218348  -4.9%  0.6494E+08  0.2280E+08  0.4094E+06 -0.5536E+05  0.8982E-02   1.228      0.1093E-01
  108200  0.5410E-01  0.5000E-06 NODE    10218348  -4.9%  0.6499E+08  0.2275E+08  0.4064E+06 -0.5540E+05  0.8982E-02   1.228      0.1093E-01
  108300  0.5415E-01  0.5000E-06 NODE    10803378  -4.9%  0.6503E+08  0.2271E+08  0.4068E+06 -0.5541E+05  0.8983E-02   1.228      0.1093E-01
  108400  0.5420E-01  0.5000E-06 NODE    10218345  -4.9%  0.6507E+08  0.2266E+08  0.4088E+06 -0.5545E+05  0.8984E-02   1.228      0.1093E-01
  108500  0.5425E-01  0.5000E-06 NODE    10218348  -4.9%  0.6511E+08  0.2262E+08  0.4104E+06 -0.5548E+05  0.8985E-02   1.228      0.1093E-01
  108600  0.5430E-01  0.5000E-06 NODE    10819437  -4.9%  0.6515E+08  0.2257E+08  0.4123E+06 -0.5551E+05  0.8987E-02   1.228      0.1093E-01
  108700  0.5435E-01  0.5000E-06 NODE    10741570  -4.9%  0.6519E+08  0.2253E+08  0.4128E+06 -0.5556E+05  0.8988E-02   1.228      0.1093E-01
  108800  0.5440E-01  0.5000E-06 NODE    10125371  -4.9%  0.6523E+08  0.2248E+08  0.4132E+06 -0.5558E+05  0.8990E-02   1.228      0.1094E-01
  108900  0.5445E-01  0.5000E-06 NODE      408249  -4.9%  0.6528E+08  0.2244E+08  0.4124E+06 -0.5560E+05  0.8990E-02   1.228      0.1094E-01
  109000  0.5450E-01  0.5000E-06 NODE      159028  -5.0%  0.6532E+08  0.2240E+08  0.4114E+06 -0.5563E+05  0.8991E-02   1.228      0.1094E-01
  109100  0.5455E-01  0.5000E-06 NODE    10218348  -5.0%  0.6536E+08  0.2236E+08  0.4106E+06 -0.5567E+05  0.8991E-02   1.228      0.1094E-01
  109200  0.5460E-01  0.5000E-06 NODE    11111312  -5.0%  0.6540E+08  0.2231E+08  0.4095E+06 -0.5569E+05  0.8992E-02   1.228      0.1094E-01
  109300  0.5465E-01  0.5000E-06 NODE    10819052  -5.0%  0.6544E+08  0.2227E+08  0.4104E+06 -0.5573E+05  0.8993E-02   1.228      0.1094E-01
 **WARNING MINIMUM TIME STEP   0.4911E-06 IN INTERFACE         16(DTMIN=  0.5000E-06)
   DELETE SECONDARY NODE   10467821 FROM INTERFACE         16
   MAIN NODES :     306583    306587    306283    306586
  109400  0.5470E-01  0.5000E-06 NODE    11026873  -5.0%  0.6548E+08  0.2222E+08  0.4115E+06 -0.5576E+05  0.8994E-02   1.228      0.1094E-01
  109500  0.5475E-01  0.5000E-06 NODE    10218345  -5.0%  0.6552E+08  0.2218E+08  0.4145E+06 -0.5578E+05  0.8994E-02   1.228      0.1094E-01
  109600  0.5480E-01  0.5000E-06 NODE    10218348  -5.0%  0.6557E+08  0.2213E+08  0.4165E+06 -0.5583E+05  0.8995E-02   1.228      0.1094E-01
 **WARNING MINIMUM TIME STEP   0.4695E-06 IN INTERFACE         16(DTMIN=  0.5000E-06)
   DELETE SECONDARY NODE      49303 FROM INTERFACE         16
   MAIN NODES :     306583    306587    306283    306586
  109700  0.5485E-01  0.5000E-06 NODE    11110303  -5.0%  0.6561E+08  0.2209E+08  0.4160E+06 -0.5590E+05  0.8996E-02   1.228      0.1094E-01
  109800  0.5490E-01  0.5000E-06 NODE    11046225  -5.0%  0.6565E+08  0.2204E+08  0.4169E+06 -0.5596E+05  0.8997E-02   1.228      0.1095E-01
  109900  0.5495E-01  0.5000E-06 NODE    11031990  -5.0%  0.6569E+08  0.2200E+08  0.4166E+06 -0.5599E+05  0.8998E-02   1.228      0.1095E-01
   CYCLE    TIME      TIME-STEP  ELEMENT          ERROR  I-ENERGY    K-ENERGY T  K-ENERGY R  EXT-WORK     MAS.ERR     TOTAL MASS  MASS ADDED
  110000  0.5500E-01  0.5000E-06 NODE    10817222  -5.0%  0.6573E+08  0.2196E+08  0.4122E+06 -0.5602E+05  0.8999E-02   1.228      0.1095E-01
     ANIMATION FILE: NEON1M11A012 WRITTEN
  110100  0.5505E-01  0.5000E-06 NODE      239833  -5.0%  0.6578E+08  0.2191E+08  0.4112E+06 -0.5604E+05  0.9000E-02   1.228      0.1095E-01
  110200  0.5510E-01  0.5000E-06 NODE    10223649  -5.0%  0.6581E+08  0.2187E+08  0.4130E+06 -0.5606E+05  0.9001E-02   1.228      0.1095E-01
  110300  0.5515E-01  0.5000E-06 NODE    11026873  -5.0%  0.6585E+08  0.2183E+08  0.4121E+06 -0.5608E+05  0.9002E-02   1.228      0.1095E-01
  110400  0.5520E-01  0.5000E-06 NODE    10555513  -5.0%  0.6589E+08  0.2179E+08  0.4122E+06 -0.5610E+05  0.9002E-02   1.228      0.1095E-01
  110500  0.5525E-01  0.5000E-06 NODE    10784388  -5.0%  0.6593E+08  0.2175E+08  0.4137E+06 -0.5611E+05  0.9003E-02   1.228      0.1095E-01
  110600  0.5530E-01  0.5000E-06 NODE    10218345  -5.0%  0.6597E+08  0.2170E+08  0.4138E+06 -0.5612E+05  0.9004E-02   1.228      0.1095E-01
  110700  0.5535E-01  0.5000E-06 NODE    10741570  -5.0%  0.6601E+08  0.2166E+08  0.4145E+06 -0.5615E+05  0.9004E-02   1.228      0.1095E-01
  110800  0.5540E-01  0.5000E-06 NODE      418152  -5.0%  0.6605E+08  0.2162E+08  0.4128E+06 -0.5616E+05  0.9006E-02   1.228      0.1096E-01
  110900  0.5545E-01  0.5000E-06 NODE    10741570  -5.0%  0.6608E+08  0.2158E+08  0.4128E+06 -0.5619E+05  0.9007E-02   1.228      0.1096E-01
 **WARNING MINIMUM TIME STEP   0.4702E-06 IN INTERFACE         15(DTMIN=  0.5000E-06)
   DELETE SECONDARY NODE     138499 FROM INTERFACE         15
   MAIN NODES :     507078  11156022  11156020  11155983
  111000  0.5550E-01  0.5000E-06 NODE      336234  -5.0%  0.6612E+08  0.2154E+08  0.4113E+06 -0.5624E+05  0.9008E-02   1.228      0.1096E-01
  111100  0.5555E-01  0.5000E-06 NODE    10810887  -5.0%  0.6616E+08  0.2150E+08  0.4127E+06 -0.5626E+05  0.9009E-02   1.228      0.1096E-01
  111200  0.5560E-01  0.5000E-06 NODE    10218348  -5.0%  0.6620E+08  0.2146E+08  0.4165E+06 -0.5631E+05  0.9009E-02   1.228      0.1096E-01
 **WARNING MINIMUM TIME STEP   0.4820E-06 IN INTERFACE         16(DTMIN=  0.5000E-06)
   DELETE SECONDARY NODE     240198 FROM INTERFACE         16
   MAIN NODES :     246581  11046178  11046175  11046177
  111300  0.5565E-01  0.5000E-06 NODE    10741570  -5.0%  0.6623E+08  0.2142E+08  0.4168E+06 -0.5635E+05  0.9010E-02   1.228      0.1096E-01
 **WARNING MINIMUM TIME STEP   0.4627E-06 IN INTERFACE         16(DTMIN=  0.5000E-06)
   DELETE SECONDARY NODE     240197 FROM INTERFACE         16
   MAIN NODES :     246583  11045499  11045495  11045498
  111400  0.5570E-01  0.5000E-06 NODE    10555337  -5.0%  0.6627E+08  0.2138E+08  0.4155E+06 -0.5638E+05  0.9011E-02   1.228      0.1096E-01
  111500  0.5575E-01  0.5000E-06 NODE    10218345  -5.0%  0.6631E+08  0.2134E+08  0.4150E+06 -0.5641E+05  0.9011E-02   1.228      0.1096E-01
  111600  0.5580E-01  0.5000E-06 NODE      189223  -5.0%  0.6635E+08  0.2130E+08  0.4144E+06 -0.5641E+05  0.9012E-02   1.228      0.1096E-01
  111700  0.5585E-01  0.5000E-06 NODE    10205936  -5.0%  0.6639E+08  0.2125E+08  0.4142E+06 -0.5656E+05  0.9013E-02   1.228      0.1097E-01
  111800  0.5590E-01  0.5000E-06 NODE      189223  -5.0%  0.6643E+08  0.2121E+08  0.4134E+06 -0.5658E+05  0.9014E-02   1.228      0.1097E-01
  111900  0.5595E-01  0.5000E-06 NODE      158405  -5.0%  0.6647E+08  0.2117E+08  0.4130E+06 -0.5659E+05  0.9015E-02   1.228      0.1097E-01
  112000  0.5600E-01  0.5000E-06 NODE    11047123  -5.0%  0.6650E+08  0.2113E+08  0.4153E+06 -0.5662E+05  0.9016E-02   1.228      0.1097E-01
  112100  0.5605E-01  0.5000E-06 NODE    10218348  -5.0%  0.6654E+08  0.2109E+08  0.4145E+06 -0.5662E+05  0.9017E-02   1.228      0.1097E-01
  112200  0.5610E-01  0.5000E-06 NODE      418152  -5.0%  0.6658E+08  0.2105E+08  0.4128E+06 -0.5665E+05  0.9018E-02   1.228      0.1097E-01
  112300  0.5615E-01  0.5000E-06 NODE    10398635  -5.0%  0.6662E+08  0.2101E+08  0.4127E+06 -0.5668E+05  0.9019E-02   1.228      0.1097E-01
  112400  0.5620E-01  0.5000E-06 NODE    11204190  -5.0%  0.6666E+08  0.2097E+08  0.4132E+06 -0.5672E+05  0.9020E-02   1.228      0.1097E-01
  112500  0.5625E-01  0.5000E-06 NODE    10000378  -5.0%  0.6670E+08  0.2093E+08  0.4134E+06 -0.5675E+05  0.9020E-02   1.228      0.1097E-01
  112600  0.5630E-01  0.5000E-06 NODE      149668  -5.0%  0.6673E+08  0.2089E+08  0.4143E+06 -0.5678E+05  0.9021E-02   1.228      0.1097E-01
  112700  0.5635E-01  0.5000E-06 NODE    10217002  -5.1%  0.6677E+08  0.2084E+08  0.4153E+06 -0.5679E+05  0.9022E-02   1.228      0.1098E-01
  112800  0.5640E-01  0.5000E-06 NODE    10223641  -5.1%  0.6681E+08  0.2080E+08  0.4142E+06 -0.5681E+05  0.9023E-02   1.228      0.1098E-01
  112900  0.5645E-01  0.5000E-06 NODE    11026892  -5.1%  0.6685E+08  0.2076E+08  0.4120E+06 -0.5682E+05  0.9024E-02   1.228      0.1098E-01
  113000  0.5650E-01  0.5000E-06 NODE    11026892  -5.1%  0.6689E+08  0.2072E+08  0.4107E+06 -0.5684E+05  0.9025E-02   1.228      0.1098E-01
  113100  0.5655E-01  0.5000E-06 NODE    11189624  -5.1%  0.6693E+08  0.2068E+08  0.4102E+06 -0.5687E+05  0.9025E-02   1.228      0.1098E-01
  113200  0.5660E-01  0.5000E-06 NODE    10785543  -5.1%  0.6696E+08  0.2064E+08  0.4106E+06 -0.5689E+05  0.9026E-02   1.228      0.1098E-01
  113300  0.5665E-01  0.5000E-06 NODE    11032010  -5.1%  0.6700E+08  0.2060E+08  0.4108E+06 -0.5691E+05  0.9026E-02   1.228      0.1098E-01
  113400  0.5670E-01  0.5000E-06 NODE      418155  -5.1%  0.6704E+08  0.2056E+08  0.4112E+06 -0.5693E+05  0.9027E-02   1.228      0.1098E-01
  113500  0.5675E-01  0.5000E-06 NODE    11026892  -5.1%  0.6708E+08  0.2052E+08  0.4147E+06 -0.5696E+05  0.9028E-02   1.228      0.1098E-01
 **WARNING MINIMUM TIME STEP   0.4658E-06 IN INTERFACE         15(DTMIN=  0.5000E-06)
   DELETE SECONDARY NODE     132248 FROM INTERFACE         15
   MAIN NODES :     127053  10731138  10731135  10731137
  113600  0.5680E-01  0.5000E-06 NODE    10005913  -5.1%  0.6711E+08  0.2048E+08  0.4158E+06 -0.5709E+05  0.9029E-02   1.228      0.1098E-01
  113700  0.5685E-01  0.5000E-06 NODE      239979  -5.1%  0.6715E+08  0.2044E+08  0.4162E+06 -0.5714E+05  0.9030E-02   1.228      0.1099E-01
  113800  0.5690E-01  0.5000E-06 NODE    11026888  -5.1%  0.6719E+08  0.2039E+08  0.4139E+06 -0.5719E+05  0.9030E-02   1.228      0.1099E-01
  113900  0.5695E-01  0.5000E-06 NODE    10789022  -5.1%  0.6723E+08  0.2035E+08  0.4137E+06 -0.5725E+05  0.9031E-02   1.228      0.1099E-01
  114000  0.5700E-01  0.5000E-06 NODE    10005907  -5.1%  0.6727E+08  0.2031E+08  0.4142E+06 -0.5729E+05  0.9032E-02   1.228      0.1099E-01
  114100  0.5705E-01  0.5000E-06 NODE    11026888  -5.1%  0.6731E+08  0.2027E+08  0.4154E+06 -0.5732E+05  0.9033E-02   1.228      0.1099E-01
 **WARNING MINIMUM TIME STEP   0.4878E-06 IN INTERFACE         14(DTMIN=  0.5000E-06)
   DELETE SECONDARY NODE     239585 FROM INTERFACE         14
   MAIN NODES :     186349  10862838  10862835  10862837
  114200  0.5710E-01  0.5000E-06 NODE      337457  -5.1%  0.6735E+08  0.2023E+08  0.4152E+06 -0.5734E+05  0.9034E-02   1.228      0.1099E-01
  114300  0.5715E-01  0.5000E-06 NODE    11026888  -5.1%  0.6738E+08  0.2019E+08  0.4150E+06 -0.5734E+05  0.9035E-02   1.228      0.1099E-01
  114400  0.5720E-01  0.5000E-06 NODE    10005205  -5.1%  0.6742E+08  0.2015E+08  0.4141E+06 -0.5736E+05  0.9036E-02   1.228      0.1099E-01
  114500  0.5725E-01  0.5000E-06 NODE       66569  -5.1%  0.6746E+08  0.2011E+08  0.4138E+06 -0.5737E+05  0.9037E-02   1.228      0.1099E-01
  114600  0.5730E-01  0.5000E-06 NODE    10005905  -5.1%  0.6750E+08  0.2007E+08  0.4128E+06 -0.5739E+05  0.9038E-02   1.228      0.1100E-01
  114700  0.5735E-01  0.5000E-06 NODE    10005905  -5.1%  0.6754E+08  0.2003E+08  0.4150E+06 -0.5741E+05  0.9039E-02   1.228      0.1100E-01
  114800  0.5740E-01  0.5000E-06 NODE      344996  -5.1%  0.6758E+08  0.1999E+08  0.4171E+06 -0.5742E+05  0.9040E-02   1.228      0.1100E-01
  114900  0.5745E-01  0.5000E-06 NODE    10784388  -5.1%  0.6762E+08  0.1994E+08  0.4161E+06 -0.5744E+05  0.9041E-02   1.228      0.1100E-01
  115000  0.5750E-01  0.5000E-06 NODE    11026890  -5.1%  0.6765E+08  0.1990E+08  0.4162E+06 -0.5747E+05  0.9042E-02   1.228      0.1100E-01
  115100  0.5755E-01  0.5000E-06 NODE    11026890  -5.1%  0.6769E+08  0.1986E+08  0.4162E+06 -0.5749E+05  0.9043E-02   1.228      0.1100E-01
  115200  0.5760E-01  0.5000E-06 NODE    10784651  -5.1%  0.6773E+08  0.1982E+08  0.4154E+06 -0.5751E+05  0.9044E-02   1.228      0.1100E-01
  115300  0.5765E-01  0.5000E-06 NODE    10005214  -5.1%  0.6778E+08  0.1978E+08  0.4147E+06 -0.5753E+05  0.9044E-02   1.228      0.1100E-01
  115400  0.5770E-01  0.5000E-06 NODE    10332703  -5.1%  0.6782E+08  0.1973E+08  0.4167E+06 -0.5756E+05  0.9045E-02   1.228      0.1100E-01
   CYCLE    TIME      TIME-STEP  ELEMENT          ERROR  I-ENERGY    K-ENERGY T  K-ENERGY R  EXT-WORK     MAS.ERR     TOTAL MASS  MASS ADDED
  115500  0.5775E-01  0.5000E-06 NODE      337456  -5.1%  0.6786E+08  0.1968E+08  0.4185E+06 -0.5758E+05  0.9046E-02   1.228      0.1101E-01
  115600  0.5780E-01  0.5000E-06 NODE    11189560  -5.1%  0.6790E+08  0.1964E+08  0.4189E+06 -0.5761E+05  0.9047E-02   1.228      0.1101E-01
  115700  0.5785E-01  0.5000E-06 NODE      337458  -5.1%  0.6794E+08  0.1959E+08  0.4195E+06 -0.5762E+05  0.9048E-02   1.228      0.1101E-01
  115800  0.5790E-01  0.5000E-06 NODE    11189560  -5.1%  0.6799E+08  0.1955E+08  0.4194E+06 -0.5763E+05  0.9049E-02   1.228      0.1101E-01
  115900  0.5795E-01  0.5000E-06 NODE    11047114  -5.1%  0.6803E+08  0.1950E+08  0.4177E+06 -0.5765E+05  0.9050E-02   1.228      0.1101E-01
  116000  0.5800E-01  0.5000E-06 NODE    11189560  -5.1%  0.6808E+08  0.1945E+08  0.4159E+06 -0.5768E+05  0.9051E-02   1.228      0.1101E-01
  116100  0.5805E-01  0.5000E-06 NODE    11105952  -5.1%  0.6812E+08  0.1941E+08  0.4135E+06 -0.5769E+05  0.9052E-02   1.228      0.1101E-01
  116200  0.5810E-01  0.5000E-06 NODE    11031838  -5.1%  0.6817E+08  0.1936E+08  0.4131E+06 -0.5771E+05  0.9054E-02   1.228      0.1101E-01
  116300  0.5815E-01  0.5000E-06 NODE    10517098  -5.1%  0.6822E+08  0.1931E+08  0.4136E+06 -0.5773E+05  0.9055E-02   1.228      0.1102E-01
  116400  0.5820E-01  0.5000E-06 NODE    11189383  -5.2%  0.6826E+08  0.1926E+08  0.4149E+06 -0.5775E+05  0.9056E-02   1.228      0.1102E-01
  116500  0.5825E-01  0.5000E-06 NODE    11189560  -5.2%  0.6831E+08  0.1921E+08  0.4168E+06 -0.5776E+05  0.9057E-02   1.228      0.1102E-01
  116600  0.5830E-01  0.5000E-06 NODE    10819865  -5.2%  0.6835E+08  0.1917E+08  0.4187E+06 -0.5778E+05  0.9058E-02   1.228      0.1102E-01
  116700  0.5835E-01  0.5000E-06 NODE    10013632  -5.2%  0.6839E+08  0.1912E+08  0.4195E+06 -0.5779E+05  0.9059E-02   1.228      0.1102E-01
  116800  0.5840E-01  0.5000E-06 NODE    10226059  -5.2%  0.6844E+08  0.1907E+08  0.4192E+06 -0.5781E+05  0.9060E-02   1.228      0.1102E-01
  116900  0.5845E-01  0.5000E-06 NODE    11189677  -5.2%  0.6849E+08  0.1902E+08  0.4200E+06 -0.5782E+05  0.9060E-02   1.228      0.1102E-01
  117000  0.5850E-01  0.5000E-06 NODE      239975  -5.2%  0.6853E+08  0.1897E+08  0.4218E+06 -0.5783E+05  0.9061E-02   1.228      0.1102E-01
  117100  0.5855E-01  0.5000E-06 NODE      339154  -5.2%  0.6858E+08  0.1892E+08  0.4212E+06 -0.5783E+05  0.9062E-02   1.228      0.1102E-01
  117200  0.5860E-01  0.5000E-06 NODE    11047114  -5.2%  0.6863E+08  0.1887E+08  0.4200E+06 -0.5785E+05  0.9063E-02   1.228      0.1103E-01
  117300  0.5865E-01  0.5000E-06 NODE    11047114  -5.2%  0.6868E+08  0.1882E+08  0.4192E+06 -0.5786E+05  0.9064E-02   1.228      0.1103E-01
  117400  0.5870E-01  0.5000E-06 NODE      339154  -5.2%  0.6872E+08  0.1877E+08  0.4189E+06 -0.5787E+05  0.9064E-02   1.228      0.1103E-01
  117500  0.5875E-01  0.5000E-06 NODE    11047114  -5.2%  0.6877E+08  0.1872E+08  0.4197E+06 -0.5789E+05  0.9065E-02   1.228      0.1103E-01
  117600  0.5880E-01  0.5000E-06 NODE    10226059  -5.2%  0.6882E+08  0.1867E+08  0.4205E+06 -0.5791E+05  0.9066E-02   1.228      0.1103E-01
  117700  0.5885E-01  0.5000E-06 NODE    10039889  -5.2%  0.6887E+08  0.1862E+08  0.4207E+06 -0.5793E+05  0.9067E-02   1.228      0.1103E-01
  117800  0.5890E-01  0.5000E-06 NODE    10039889  -5.2%  0.6892E+08  0.1857E+08  0.4200E+06 -0.5796E+05  0.9067E-02   1.228      0.1103E-01
  117900  0.5895E-01  0.5000E-06 NODE    10749852  -5.2%  0.6896E+08  0.1852E+08  0.4209E+06 -0.5798E+05  0.9068E-02   1.228      0.1103E-01
  118000  0.5900E-01  0.5000E-06 NODE      375715  -5.2%  0.6902E+08  0.1847E+08  0.4212E+06 -0.5799E+05  0.9069E-02   1.228      0.1103E-01
  118100  0.5905E-01  0.5000E-06 NODE    10013630  -5.2%  0.6906E+08  0.1842E+08  0.4202E+06 -0.5800E+05  0.9070E-02   1.228      0.1103E-01
  118200  0.5910E-01  0.5000E-06 NODE      192155  -5.2%  0.6912E+08  0.1836E+08  0.4196E+06 -0.5801E+05  0.9071E-02   1.228      0.1103E-01
  118300  0.5915E-01  0.5000E-06 NODE    10876172  -5.2%  0.6916E+08  0.1831E+08  0.4197E+06 -0.5803E+05  0.9072E-02   1.228      0.1104E-01
  118400  0.5920E-01  0.5000E-06 NODE      239785  -5.2%  0.6922E+08  0.1826E+08  0.4179E+06 -0.5804E+05  0.9072E-02   1.228      0.1104E-01
  118500  0.5925E-01  0.5000E-06 NODE    10819865  -5.2%  0.6926E+08  0.1821E+08  0.4180E+06 -0.5808E+05  0.9073E-02   1.228      0.1104E-01
  118600  0.5930E-01  0.5000E-06 NODE    10218349  -5.2%  0.6932E+08  0.1815E+08  0.4175E+06 -0.5810E+05  0.9074E-02   1.228      0.1104E-01
  118700  0.5935E-01  0.5000E-06 NODE    10218349  -5.2%  0.6936E+08  0.1810E+08  0.4178E+06 -0.5811E+05  0.9074E-02   1.228      0.1104E-01
  118800  0.5940E-01  0.5000E-06 NODE      357693  -5.2%  0.6942E+08  0.1805E+08  0.4181E+06 -0.5811E+05  0.9075E-02   1.228      0.1104E-01
  118900  0.5945E-01  0.5000E-06 NODE    10218348  -5.2%  0.6947E+08  0.1800E+08  0.4178E+06 -0.5814E+05  0.9076E-02   1.228      0.1104E-01
  119000  0.5950E-01  0.5000E-06 NODE    10541792  -5.2%  0.6952E+08  0.1795E+08  0.4171E+06 -0.5817E+05  0.9077E-02   1.228      0.1104E-01
 **WARNING MINIMUM TIME STEP   0.3451E-06 IN INTERFACE         15(DTMIN=  0.5000E-06)
   DELETE SECONDARY NODE     306482 FROM INTERFACE         15
   MAIN NODES :      72040  10546182  10546180  10546178
  119100  0.5955E-01  0.5000E-06 NODE    10861892  -5.2%  0.6957E+08  0.1789E+08  0.4176E+06 -0.5820E+05  0.9078E-02   1.228      0.1104E-01
  119200  0.5960E-01  0.5000E-06 NODE      157621  -5.2%  0.6962E+08  0.1784E+08  0.4172E+06 -0.5822E+05  0.9079E-02   1.228      0.1105E-01
  119300  0.5965E-01  0.5000E-06 NODE    10875682  -5.2%  0.6967E+08  0.1779E+08  0.4140E+06 -0.5825E+05  0.9079E-02   1.228      0.1105E-01
  119400  0.5970E-01  0.5000E-06 NODE      196231  -5.2%  0.6972E+08  0.1774E+08  0.4136E+06 -0.5827E+05  0.9080E-02   1.228      0.1105E-01
  119500  0.5975E-01  0.5000E-06 NODE      135343  -5.2%  0.6977E+08  0.1768E+08  0.4150E+06 -0.5829E+05  0.9081E-02   1.228      0.1105E-01
  119600  0.5980E-01  0.5000E-06 NODE    10040233  -5.2%  0.6982E+08  0.1763E+08  0.4135E+06 -0.5831E+05  0.9082E-02   1.228      0.1105E-01
 **WARNING MINIMUM TIME STEP   0.4090E-06 IN INTERFACE         15(DTMIN=  0.5000E-06)
   DELETE SECONDARY NODE     238159 FROM INTERFACE         15
   MAIN NODES :     245133  11041077  11041075  11041073
  119700  0.5985E-01  0.5000E-06 NODE    10040230  -5.2%  0.6988E+08  0.1757E+08  0.4128E+06 -0.5832E+05  0.9082E-02   1.228      0.1105E-01
  119800  0.5990E-01  0.5000E-06 NODE    10040230  -5.2%  0.6993E+08  0.1752E+08  0.4129E+06 -0.5835E+05  0.9083E-02   1.228      0.1105E-01
  119900  0.5995E-01  0.5000E-06 NODE    11194135  -5.2%  0.6998E+08  0.1747E+08  0.4141E+06 -0.5836E+05  0.9084E-02   1.228      0.1105E-01
  120000  0.6000E-01  0.5000E-06 NODE      246798  -5.2%  0.7003E+08  0.1741E+08  0.4149E+06 -0.5838E+05  0.9085E-02   1.228      0.1105E-01
     ANIMATION FILE: NEON1M11A013 WRITTEN
  120100  0.6005E-01  0.5000E-06 NODE    10013350  -5.2%  0.7008E+08  0.1736E+08  0.4141E+06 -0.5839E+05  0.9086E-02   1.228      0.1105E-01
  120200  0.6010E-01  0.5000E-06 NODE    10223640  -5.2%  0.7014E+08  0.1730E+08  0.4134E+06 -0.5841E+05  0.9088E-02   1.228      0.1106E-01
  120300  0.6015E-01  0.5000E-06 NODE    10013300  -5.2%  0.7019E+08  0.1725E+08  0.4132E+06 -0.5843E+05  0.9089E-02   1.228      0.1106E-01
  120400  0.6020E-01  0.5000E-06 NODE    10218331  -5.3%  0.7024E+08  0.1719E+08  0.4131E+06 -0.5845E+05  0.9089E-02   1.228      0.1106E-01
  120500  0.6025E-01  0.5000E-06 NODE    10013631  -5.3%  0.7030E+08  0.1713E+08  0.4126E+06 -0.5848E+05  0.9090E-02   1.228      0.1106E-01
  120600  0.6030E-01  0.5000E-06 NODE    10013360  -5.3%  0.7035E+08  0.1707E+08  0.4121E+06 -0.5849E+05  0.9091E-02   1.228      0.1106E-01
  120700  0.6035E-01  0.5000E-06 NODE    10125042  -5.3%  0.7041E+08  0.1701E+08  0.4121E+06 -0.5851E+05  0.9092E-02   1.228      0.1106E-01
  120800  0.6040E-01  0.5000E-06 NODE    10040231  -5.3%  0.7047E+08  0.1696E+08  0.4128E+06 -0.5852E+05  0.9092E-02   1.228      0.1106E-01
  120900  0.6045E-01  0.5000E-06 NODE    10040231  -5.3%  0.7053E+08  0.1689E+08  0.4122E+06 -0.5855E+05  0.9093E-02   1.228      0.1106E-01
   CYCLE    TIME      TIME-STEP  ELEMENT          ERROR  I-ENERGY    K-ENERGY T  K-ENERGY R  EXT-WORK     MAS.ERR     TOTAL MASS  MASS ADDED
  121000  0.6050E-01  0.5000E-06 NODE    11031838  -5.3%  0.7058E+08  0.1683E+08  0.4123E+06 -0.5856E+05  0.9094E-02   1.228      0.1106E-01
  121100  0.6055E-01  0.5000E-06 NODE    10040231  -5.3%  0.7064E+08  0.1677E+08  0.4128E+06 -0.5858E+05  0.9095E-02   1.228      0.1106E-01
  121200  0.6060E-01  0.5000E-06 NODE      246798  -5.3%  0.7070E+08  0.1671E+08  0.4135E+06 -0.5860E+05  0.9096E-02   1.228      0.1107E-01
  121300  0.6065E-01  0.5000E-06 NODE    11032010  -5.3%  0.7076E+08  0.1665E+08  0.4117E+06 -0.5861E+05  0.9097E-02   1.228      0.1107E-01
  121400  0.6070E-01  0.5000E-06 NODE    11189677  -5.3%  0.7083E+08  0.1658E+08  0.4099E+06 -0.5864E+05  0.9098E-02   1.228      0.1107E-01
  121500  0.6075E-01  0.5000E-06 NODE    10881667  -5.3%  0.7088E+08  0.1652E+08  0.4105E+06 -0.5874E+05  0.9098E-02   1.228      0.1107E-01
  121600  0.6080E-01  0.5000E-06 NODE       11541  -5.3%  0.7094E+08  0.1646E+08  0.4115E+06 -0.5878E+05  0.9099E-02   1.228      0.1107E-01
  121700  0.6085E-01  0.5000E-06 NODE    10218349  -5.3%  0.7100E+08  0.1639E+08  0.4137E+06 -0.5880E+05  0.9100E-02   1.228      0.1107E-01
  121800  0.6090E-01  0.5000E-06 NODE    10889409  -5.3%  0.7106E+08  0.1633E+08  0.4125E+06 -0.5880E+05  0.9101E-02   1.228      0.1107E-01
  121900  0.6095E-01  0.5000E-06 NODE      371054  -5.3%  0.7113E+08  0.1626E+08  0.4106E+06 -0.5883E+05  0.9102E-02   1.228      0.1107E-01
  122000  0.6100E-01  0.5000E-06 NODE    10818638  -5.3%  0.7119E+08  0.1620E+08  0.4109E+06 -0.5885E+05  0.9103E-02   1.228      0.1107E-01
  122100  0.6105E-01  0.5000E-06 NODE    10818284  -5.3%  0.7126E+08  0.1613E+08  0.4097E+06 -0.5890E+05  0.9103E-02   1.228      0.1107E-01
  122200  0.6110E-01  0.5000E-06 NODE      246798  -5.3%  0.7132E+08  0.1607E+08  0.4088E+06 -0.5891E+05  0.9104E-02   1.228      0.1108E-01
  122300  0.6115E-01  0.5000E-06 NODE    11109059  -5.3%  0.7138E+08  0.1601E+08  0.4092E+06 -0.5893E+05  0.9105E-02   1.228      0.1108E-01
  122400  0.6120E-01  0.5000E-06 NODE    11214129  -5.3%  0.7144E+08  0.1594E+08  0.4094E+06 -0.5895E+05  0.9106E-02   1.228      0.1108E-01
  122500  0.6125E-01  0.5000E-06 NODE    10332554  -5.3%  0.7150E+08  0.1588E+08  0.4115E+06 -0.5898E+05  0.9107E-02   1.228      0.1108E-01
  122600  0.6130E-01  0.5000E-06 NODE      408249  -5.3%  0.7156E+08  0.1581E+08  0.4124E+06 -0.5901E+05  0.9107E-02   1.228      0.1108E-01
  122700  0.6135E-01  0.5000E-06 NODE    10368728  -5.3%  0.7162E+08  0.1575E+08  0.4113E+06 -0.5904E+05  0.9108E-02   1.228      0.1108E-01
  122800  0.6140E-01  0.5000E-06 NODE    10084050  -5.3%  0.7168E+08  0.1569E+08  0.4111E+06 -0.5904E+05  0.9108E-02   1.228      0.1108E-01
  122900  0.6145E-01  0.5000E-06 NODE    10368728  -5.3%  0.7174E+08  0.1562E+08  0.4094E+06 -0.5906E+05  0.9109E-02   1.228      0.1108E-01
  123000  0.6150E-01  0.5000E-06 NODE    11045490  -5.3%  0.7180E+08  0.1556E+08  0.4095E+06 -0.5909E+05  0.9110E-02   1.228      0.1108E-01
  123100  0.6155E-01  0.5000E-06 NODE    11189342  -5.3%  0.7186E+08  0.1550E+08  0.4107E+06 -0.5911E+05  0.9111E-02   1.228      0.1108E-01
  123200  0.6160E-01  0.5000E-06 NODE      345352  -5.3%  0.7192E+08  0.1544E+08  0.4114E+06 -0.5912E+05  0.9113E-02   1.228      0.1109E-01
 **WARNING MINIMUM TIME STEP   0.4720E-06 IN INTERFACE         15(DTMIN=  0.5000E-06)
   DELETE SECONDARY NODE   10738487 FROM INTERFACE         15
   MAIN NODES :     509054  11169183  11169180  11169182
  123300  0.6165E-01  0.5000E-06 NODE    11189342  -5.3%  0.7197E+08  0.1538E+08  0.4120E+06 -0.5914E+05  0.9114E-02   1.228      0.1109E-01
  123400  0.6170E-01  0.5000E-06 NODE    11189342  -5.3%  0.7204E+08  0.1531E+08  0.4109E+06 -0.5916E+05  0.9115E-02   1.228      0.1109E-01
  123500  0.6175E-01  0.5000E-06 NODE    10819852  -5.3%  0.7210E+08  0.1525E+08  0.4109E+06 -0.5917E+05  0.9116E-02   1.228      0.1109E-01
  123600  0.6180E-01  0.5000E-06 NODE     9904524  -5.3%  0.7216E+08  0.1519E+08  0.4111E+06 -0.5918E+05  0.9116E-02   1.228      0.1109E-01
 **WARNING MINIMUM TIME STEP   0.4192E-06 IN INTERFACE         17(DTMIN=  0.5000E-06)
   DELETE SECONDARY NODE      60753 FROM INTERFACE         17
   MAIN NODES :      39370  10438383  10438380  10438382
  123700  0.6185E-01  0.5000E-06 NODE      157570  -5.4%  0.7222E+08  0.1512E+08  0.4095E+06 -0.5919E+05  0.9117E-02   1.228      0.1109E-01
  123800  0.6190E-01  0.5000E-06 NODE      132971  -5.4%  0.7228E+08  0.1506E+08  0.4102E+06 -0.5920E+05  0.9118E-02   1.228      0.1109E-01
 **WARNING MINIMUM TIME STEP   0.4161E-06 IN INTERFACE         17(DTMIN=  0.5000E-06)
   DELETE SECONDARY NODE   10492932 FROM INTERFACE         17
   MAIN NODES :      39370  10438602  10438600  10438383
  123900  0.6195E-01  0.5000E-06 NODE    10818221  -5.4%  0.7234E+08  0.1500E+08  0.4103E+06 -0.5922E+05  0.9119E-02   1.228      0.1109E-01
  124000  0.6200E-01  0.5000E-06 NODE    10818221  -5.4%  0.7240E+08  0.1493E+08  0.4093E+06 -0.5925E+05  0.9120E-02   1.228      0.1110E-01
  124100  0.6205E-01  0.5000E-06 NODE    11182422  -5.4%  0.7246E+08  0.1487E+08  0.4084E+06 -0.5928E+05  0.9121E-02   1.228      0.1110E-01
  124200  0.6210E-01  0.5000E-06 NODE    11182422  -5.4%  0.7252E+08  0.1481E+08  0.4096E+06 -0.5930E+05  0.9122E-02   1.228      0.1110E-01
  124300  0.6215E-01  0.5000E-06 NODE    10818221  -5.4%  0.7258E+08  0.1475E+08  0.4096E+06 -0.5932E+05  0.9123E-02   1.228      0.1110E-01
  124400  0.6220E-01  0.5000E-06 NODE    10818221  -5.4%  0.7264E+08  0.1469E+08  0.4087E+06 -0.5934E+05  0.9123E-02   1.228      0.1110E-01
  124500  0.6225E-01  0.5000E-06 NODE      345782  -5.4%  0.7270E+08  0.1462E+08  0.4087E+06 -0.5935E+05  0.9124E-02   1.228      0.1110E-01
  124600  0.6230E-01  0.5000E-06 NODE    10903943  -5.4%  0.7275E+08  0.1456E+08  0.4101E+06 -0.5937E+05  0.9124E-02   1.228      0.1110E-01
  124700  0.6235E-01  0.5000E-06 NODE    11182422  -5.4%  0.7281E+08  0.1450E+08  0.4093E+06 -0.5939E+05  0.9126E-02   1.228      0.1110E-01
  124800  0.6240E-01  0.5000E-06 NODE        3148  -5.4%  0.7287E+08  0.1444E+08  0.4085E+06 -0.5942E+05  0.9126E-02   1.228      0.1110E-01
  124900  0.6245E-01  0.5000E-06 NODE      132971  -5.4%  0.7293E+08  0.1438E+08  0.4085E+06 -0.5944E+05  0.9127E-02   1.228      0.1110E-01
  125000  0.6250E-01  0.5000E-06 NODE    10819868  -5.4%  0.7299E+08  0.1432E+08  0.4077E+06 -0.5946E+05  0.9127E-02   1.228      0.1110E-01
  125100  0.6255E-01  0.5000E-06 NODE    11029987  -5.4%  0.7304E+08  0.1426E+08  0.4080E+06 -0.5949E+05  0.9128E-02   1.228      0.1111E-01
  125200  0.6260E-01  0.5000E-06 NODE    10081156  -5.4%  0.7310E+08  0.1420E+08  0.4074E+06 -0.5949E+05  0.9129E-02   1.228      0.1111E-01
  125300  0.6265E-01  0.5000E-06 NODE    10420437  -5.4%  0.7316E+08  0.1414E+08  0.4083E+06 -0.5951E+05  0.9130E-02   1.228      0.1111E-01
  125400  0.6270E-01  0.5000E-06 NODE    10037963  -5.4%  0.7321E+08  0.1408E+08  0.4085E+06 -0.5952E+05  0.9131E-02   1.228      0.1111E-01
  125500  0.6275E-01  0.5000E-06 NODE      246691  -5.4%  0.7327E+08  0.1402E+08  0.4082E+06 -0.5954E+05  0.9131E-02   1.228      0.1111E-01
  125600  0.6280E-01  0.5000E-06 NODE    10784250  -5.4%  0.7333E+08  0.1396E+08  0.4080E+06 -0.5955E+05  0.9132E-02   1.228      0.1111E-01
  125700  0.6285E-01  0.5000E-06 NODE    10818221  -5.4%  0.7338E+08  0.1391E+08  0.4085E+06 -0.5957E+05  0.9132E-02   1.228      0.1111E-01
  125800  0.6290E-01  0.5000E-06 NODE      345351  -5.4%  0.7344E+08  0.1384E+08  0.4088E+06 -0.5959E+05  0.9133E-02   1.228      0.1111E-01
  125900  0.6295E-01  0.5000E-06 NODE    10343180  -5.4%  0.7350E+08  0.1378E+08  0.4105E+06 -0.5960E+05  0.9133E-02   1.228      0.1111E-01
  126000  0.6300E-01  0.5000E-06 NODE    10819868  -5.4%  0.7355E+08  0.1373E+08  0.4110E+06 -0.5962E+05  0.9134E-02   1.228      0.1111E-01
  126100  0.6305E-01  0.5000E-06 NODE    11047140  -5.4%  0.7361E+08  0.1367E+08  0.4081E+06 -0.5964E+05  0.9135E-02   1.228      0.1111E-01
  126200  0.6310E-01  0.5000E-06 NODE    10343180  -5.4%  0.7367E+08  0.1361E+08  0.4047E+06 -0.5965E+05  0.9135E-02   1.228      0.1111E-01
  126300  0.6315E-01  0.5000E-06 NODE       12102  -5.4%  0.7372E+08  0.1356E+08  0.4044E+06 -0.5967E+05  0.9136E-02   1.228      0.1111E-01
  126400  0.6320E-01  0.5000E-06 NODE       12102  -5.4%  0.7378E+08  0.1350E+08  0.4044E+06 -0.5970E+05  0.9136E-02   1.228      0.1112E-01
   CYCLE    TIME      TIME-STEP  ELEMENT          ERROR  I-ENERGY    K-ENERGY T  K-ENERGY R  EXT-WORK     MAS.ERR     TOTAL MASS  MASS ADDED
  126500  0.6325E-01  0.5000E-06 NODE       12102  -5.4%  0.7383E+08  0.1344E+08  0.4054E+06 -0.5971E+05  0.9137E-02   1.228      0.1112E-01
  126600  0.6330E-01  0.5000E-06 NODE    10040237  -5.4%  0.7388E+08  0.1339E+08  0.4042E+06 -0.5972E+05  0.9138E-02   1.228      0.1112E-01
  126700  0.6335E-01  0.5000E-06 NODE      345812  -5.4%  0.7394E+08  0.1333E+08  0.4035E+06 -0.5975E+05  0.9138E-02   1.228      0.1112E-01
  126800  0.6340E-01  0.5000E-06 NODE      246530  -5.4%  0.7399E+08  0.1327E+08  0.4032E+06 -0.5977E+05  0.9139E-02   1.228      0.1112E-01
  126900  0.6345E-01  0.5000E-06 NODE    11047037  -5.4%  0.7405E+08  0.1322E+08  0.4021E+06 -0.5978E+05  0.9140E-02   1.228      0.1112E-01
  127000  0.6350E-01  0.5000E-06 NODE    10023074  -5.4%  0.7410E+08  0.1316E+08  0.4032E+06 -0.5980E+05  0.9141E-02   1.228      0.1112E-01
  127100  0.6355E-01  0.5000E-06 NODE    10819868  -5.4%  0.7415E+08  0.1311E+08  0.4042E+06 -0.5982E+05  0.9142E-02   1.228      0.1112E-01
  127200  0.6360E-01  0.5000E-06 NODE    10878288  -5.5%  0.7420E+08  0.1306E+08  0.4038E+06 -0.5983E+05  0.9143E-02   1.228      0.1112E-01
  127300  0.6365E-01  0.5000E-06 NODE    11194766  -5.5%  0.7425E+08  0.1300E+08  0.4034E+06 -0.5985E+05  0.9144E-02   1.228      0.1112E-01
  127400  0.6370E-01  0.5000E-06 NODE      199188  -5.5%  0.7430E+08  0.1295E+08  0.4037E+06 -0.5987E+05  0.9144E-02   1.228      0.1112E-01
  127500  0.6375E-01  0.5000E-06 NODE    10040233  -5.5%  0.7435E+08  0.1289E+08  0.4053E+06 -0.5988E+05  0.9145E-02   1.228      0.1113E-01
  127600  0.6380E-01  0.5000E-06 NODE    10037967  -5.5%  0.7441E+08  0.1283E+08  0.4037E+06 -0.5990E+05  0.9145E-02   1.228      0.1113E-01
  127700  0.6385E-01  0.5000E-06 NODE      159676  -5.5%  0.7446E+08  0.1278E+08  0.4038E+06 -0.5992E+05  0.9146E-02   1.228      0.1113E-01
  127800  0.6390E-01  0.5000E-06 NODE    10081156  -5.5%  0.7450E+08  0.1273E+08  0.4058E+06 -0.5993E+05  0.9147E-02   1.228      0.1113E-01
  127900  0.6395E-01  0.5000E-06 NODE    10902782  -5.5%  0.7456E+08  0.1268E+08  0.4036E+06 -0.5996E+05  0.9148E-02   1.228      0.1113E-01
  128000  0.6400E-01  0.5000E-06 NODE       39032  -5.5%  0.7461E+08  0.1263E+08  0.4028E+06 -0.5997E+05  0.9149E-02   1.228      0.1113E-01
  128100  0.6405E-01  0.5000E-06 NODE      132973  -5.5%  0.7466E+08  0.1258E+08  0.4008E+06 -0.5998E+05  0.9150E-02   1.228      0.1113E-01
  128200  0.6410E-01  0.5000E-06 NODE    10081156  -5.5%  0.7471E+08  0.1252E+08  0.4000E+06 -0.6004E+05  0.9150E-02   1.228      0.1113E-01
  128300  0.6415E-01  0.5000E-06 NODE    10903236  -5.5%  0.7475E+08  0.1248E+08  0.4006E+06 -0.6007E+05  0.9151E-02   1.228      0.1113E-01
 **WARNING MINIMUM TIME STEP   0.4222E-06 IN INTERFACE         17(DTMIN=  0.5000E-06)
   DELETE SECONDARY NODE   10492917 FROM INTERFACE         17
   MAIN NODES :      39369  10438382  10438380  10438378
  128400  0.6420E-01  0.5000E-06 NODE    10810863  -5.5%  0.7479E+08  0.1243E+08  0.4028E+06 -0.6010E+05  0.9151E-02   1.228      0.1113E-01
  128500  0.6425E-01  0.5000E-06 NODE      132973  -5.5%  0.7485E+08  0.1237E+08  0.4034E+06 -0.6011E+05  0.9153E-02   1.228      0.1113E-01
  128600  0.6430E-01  0.5000E-06 NODE    10818633  -5.5%  0.7489E+08  0.1233E+08  0.4053E+06 -0.6013E+05  0.9153E-02   1.228      0.1114E-01
  128700  0.6435E-01  0.5000E-06 NODE    10037967  -5.5%  0.7494E+08  0.1228E+08  0.4081E+06 -0.6014E+05  0.9154E-02   1.228      0.1114E-01
  128800  0.6440E-01  0.5000E-06 NODE      138349  -5.5%  0.7498E+08  0.1222E+08  0.4095E+06 -0.6015E+05  0.9155E-02   1.228      0.1114E-01
  128900  0.6445E-01  0.5000E-06 NODE      199188  -5.5%  0.7503E+08  0.1218E+08  0.4090E+06 -0.6016E+05  0.9155E-02   1.228      0.1114E-01
  129000  0.6450E-01  0.5000E-06 NODE    10081156  -5.5%  0.7508E+08  0.1213E+08  0.4074E+06 -0.6018E+05  0.9156E-02   1.228      0.1114E-01
  129100  0.6455E-01  0.5000E-06 NODE      408249  -5.5%  0.7513E+08  0.1207E+08  0.4068E+06 -0.6020E+05  0.9156E-02   1.228      0.1114E-01
  129200  0.6460E-01  0.5000E-06 NODE      410783  -5.5%  0.7517E+08  0.1203E+08  0.4065E+06 -0.6022E+05  0.9157E-02   1.228      0.1114E-01
  129300  0.6465E-01  0.5000E-06 NODE    10810863  -5.5%  0.7522E+08  0.1198E+08  0.4071E+06 -0.6026E+05  0.9157E-02   1.228      0.1114E-01
 **WARNING MINIMUM TIME STEP   0.4335E-06 IN INTERFACE         17(DTMIN=  0.5000E-06)
   DELETE SECONDARY NODE      60751 FROM INTERFACE         17
   MAIN NODES :      39369  10438378  10438375  10438377
  129400  0.6470E-01  0.5000E-06 NODE    10741552  -5.5%  0.7527E+08  0.1193E+08  0.4047E+06 -0.6030E+05  0.9158E-02   1.228      0.1114E-01
  129500  0.6475E-01  0.5000E-06 NODE    10750598  -5.5%  0.7531E+08  0.1188E+08  0.4045E+06 -0.6033E+05  0.9159E-02   1.228      0.1114E-01
  129600  0.6480E-01  0.5000E-06 NODE      239974  -5.5%  0.7535E+08  0.1184E+08  0.4041E+06 -0.6035E+05  0.9159E-02   1.228      0.1114E-01
  129700  0.6485E-01  0.5000E-06 NODE    10818633  -5.5%  0.7541E+08  0.1178E+08  0.4023E+06 -0.6036E+05  0.9159E-02   1.228      0.1114E-01
  129800  0.6490E-01  0.5000E-06 NODE    10218331  -5.5%  0.7545E+08  0.1174E+08  0.4017E+06 -0.6037E+05  0.9160E-02   1.228      0.1114E-01
  129900  0.6495E-01  0.5000E-06 NODE      199187  -5.5%  0.7549E+08  0.1170E+08  0.4024E+06 -0.6039E+05  0.9160E-02   1.228      0.1114E-01
  130000  0.6500E-01  0.5000E-06 NODE      239328  -5.5%  0.7554E+08  0.1165E+08  0.4010E+06 -0.6041E+05  0.9161E-02   1.228      0.1114E-01
     ANIMATION FILE: NEON1M11A014 WRITTEN
  130100  0.6505E-01  0.5000E-06 NODE    11182474  -5.5%  0.7558E+08  0.1160E+08  0.4001E+06 -0.6043E+05  0.9161E-02   1.228      0.1115E-01
  130200  0.6510E-01  0.5000E-06 NODE    10437643  -5.5%  0.7563E+08  0.1155E+08  0.3999E+06 -0.6047E+05  0.9162E-02   1.228      0.1115E-01
 **WARNING MINIMUM TIME STEP   0.4422E-06 IN INTERFACE         17(DTMIN=  0.5000E-06)
   DELETE SECONDARY NODE   10492546 FROM INTERFACE         17
   MAIN NODES :      39369  10438378  10438375  10438377
  130300  0.6515E-01  0.5000E-06 NODE    10037801  -5.5%  0.7568E+08  0.1150E+08  0.3980E+06 -0.6048E+05  0.9162E-02   1.228      0.1115E-01
  130400  0.6520E-01  0.5000E-06 NODE      410783  -5.5%  0.7572E+08  0.1146E+08  0.3983E+06 -0.6049E+05  0.9163E-02   1.228      0.1115E-01
  130500  0.6525E-01  0.5000E-06 NODE    11194762  -5.5%  0.7576E+08  0.1141E+08  0.3986E+06 -0.6050E+05  0.9163E-02   1.228      0.1115E-01
  130600  0.6530E-01  0.5000E-06 NODE    10087069  -5.5%  0.7581E+08  0.1137E+08  0.3985E+06 -0.6052E+05  0.9164E-02   1.228      0.1115E-01
  130700  0.6535E-01  0.5000E-06 NODE    10438195  -5.6%  0.7585E+08  0.1132E+08  0.3987E+06 -0.6053E+05  0.9164E-02   1.228      0.1115E-01
  130800  0.6540E-01  0.5000E-06 NODE    11045622  -5.6%  0.7589E+08  0.1127E+08  0.3995E+06 -0.6056E+05  0.9165E-02   1.228      0.1115E-01
  130900  0.6545E-01  0.5000E-06 NODE      408242  -5.6%  0.7593E+08  0.1123E+08  0.4007E+06 -0.6058E+05  0.9165E-02   1.228      0.1115E-01
  131000  0.6550E-01  0.5000E-06 NODE    10437640  -5.6%  0.7598E+08  0.1118E+08  0.3993E+06 -0.6061E+05  0.9166E-02   1.228      0.1115E-01
  131100  0.6555E-01  0.5000E-06 NODE    10037972  -5.6%  0.7602E+08  0.1114E+08  0.3980E+06 -0.6067E+05  0.9167E-02   1.228      0.1115E-01
  131200  0.6560E-01  0.5000E-06 NODE    10784637  -5.6%  0.7606E+08  0.1109E+08  0.3971E+06 -0.6068E+05  0.9167E-02   1.228      0.1115E-01
  131300  0.6565E-01  0.5000E-06 NODE    10037967  -5.6%  0.7610E+08  0.1105E+08  0.3974E+06 -0.6069E+05  0.9168E-02   1.228      0.1115E-01
  131400  0.6570E-01  0.5000E-06 NODE    10026623  -5.6%  0.7614E+08  0.1101E+08  0.3990E+06 -0.6072E+05  0.9169E-02   1.228      0.1115E-01
  131500  0.6575E-01  0.5000E-06 NODE    10072738  -5.6%  0.7618E+08  0.1097E+08  0.4008E+06 -0.6075E+05  0.9169E-02   1.228      0.1116E-01
  131600  0.6580E-01  0.5000E-06 NODE      195242  -5.6%  0.7622E+08  0.1092E+08  0.4009E+06 -0.6077E+05  0.9170E-02   1.228      0.1116E-01
 **WARNING MINIMUM TIME STEP   0.4399E-06 IN INTERFACE         17(DTMIN=  0.5000E-06)
   DELETE SECONDARY NODE      60730 FROM INTERFACE         17
   MAIN NODES :      39369  10438378  10438375  10438377
  131700  0.6585E-01  0.5000E-06 NODE    10437640  -5.6%  0.7626E+08  0.1088E+08  0.3994E+06 -0.6079E+05  0.9171E-02   1.228      0.1116E-01
  131800  0.6590E-01  0.5000E-06 NODE    10072735  -5.6%  0.7631E+08  0.1084E+08  0.3966E+06 -0.6083E+05  0.9172E-02   1.228      0.1116E-01
  131900  0.6595E-01  0.5000E-06 NODE    10818360  -5.6%  0.7635E+08  0.1079E+08  0.3945E+06 -0.6084E+05  0.9172E-02   1.228      0.1116E-01
   CYCLE    TIME      TIME-STEP  ELEMENT          ERROR  I-ENERGY    K-ENERGY T  K-ENERGY R  EXT-WORK     MAS.ERR     TOTAL MASS  MASS ADDED
  132000  0.6600E-01  0.5000E-06 NODE    10819868  -5.6%  0.7639E+08  0.1075E+08  0.3952E+06 -0.6084E+05  0.9173E-02   1.228      0.1116E-01
  132100  0.6605E-01  0.5000E-06 NODE    11112970  -5.6%  0.7643E+08  0.1071E+08  0.3956E+06 -0.6087E+05  0.9173E-02   1.228      0.1116E-01
  132200  0.6610E-01  0.5000E-06 NODE    10470803  -5.6%  0.7647E+08  0.1066E+08  0.3951E+06 -0.6089E+05  0.9174E-02   1.228      0.1116E-01
  132300  0.6615E-01  0.5000E-06 NODE    10818360  -5.6%  0.7651E+08  0.1062E+08  0.3955E+06 -0.6091E+05  0.9174E-02   1.228      0.1116E-01
  132400  0.6620E-01  0.5000E-06 NODE    10037967  -5.6%  0.7655E+08  0.1058E+08  0.3974E+06 -0.6092E+05  0.9174E-02   1.228      0.1116E-01
  132500  0.6625E-01  0.5000E-06 NODE    10218339  -5.6%  0.7659E+08  0.1054E+08  0.3965E+06 -0.6096E+05  0.9175E-02   1.228      0.1116E-01
  132600  0.6630E-01  0.5000E-06 NODE    10808486  -5.6%  0.7663E+08  0.1050E+08  0.3946E+06 -0.6097E+05  0.9176E-02   1.228      0.1116E-01
  132700  0.6635E-01  0.5000E-06 NODE    10818360  -5.6%  0.7666E+08  0.1046E+08  0.3965E+06 -0.6098E+05  0.9176E-02   1.228      0.1116E-01
  132800  0.6640E-01  0.5000E-06 NODE      246421  -5.6%  0.7670E+08  0.1042E+08  0.3977E+06 -0.6100E+05  0.9177E-02   1.228      0.1116E-01
  132900  0.6645E-01  0.5000E-06 NODE    10218339  -5.6%  0.7674E+08  0.1038E+08  0.3947E+06 -0.6107E+05  0.9177E-02   1.228      0.1116E-01
 **WARNING MINIMUM TIME STEP   0.4374E-06 IN INTERFACE         17(DTMIN=  0.5000E-06)
   DELETE SECONDARY NODE   10492531 FROM INTERFACE         17
   MAIN NODES :      39368  10438377  10438375  10438373
  133000  0.6650E-01  0.5000E-06 NODE    10888752  -5.6%  0.7678E+08  0.1034E+08  0.3920E+06 -0.6110E+05  0.9178E-02   1.228      0.1117E-01
  133100  0.6655E-01  0.5000E-06 NODE    10437642  -5.6%  0.7682E+08  0.1030E+08  0.3923E+06 -0.6112E+05  0.9178E-02   1.228      0.1117E-01
  133200  0.6660E-01  0.5000E-06 NODE    10818360  -5.6%  0.7686E+08  0.1025E+08  0.3921E+06 -0.6114E+05  0.9179E-02   1.228      0.1117E-01
  133300  0.6665E-01  0.5000E-06 NODE    10523523  -5.6%  0.7690E+08  0.1021E+08  0.3924E+06 -0.6116E+05  0.9179E-02   1.228      0.1117E-01
  133400  0.6670E-01  0.5000E-06 NODE    10858907  -5.6%  0.7693E+08  0.1018E+08  0.3937E+06 -0.6118E+05  0.9180E-02   1.228      0.1117E-01
  133500  0.6675E-01  0.5000E-06 NODE    10878163  -5.6%  0.7696E+08  0.1014E+08  0.3959E+06 -0.6120E+05  0.9180E-02   1.228      0.1117E-01
  133600  0.6680E-01  0.5000E-06 NODE      191627  -5.6%  0.7700E+08  0.1010E+08  0.3955E+06 -0.6121E+05  0.9181E-02   1.228      0.1117E-01
  133700  0.6685E-01  0.5000E-06 NODE    11212243  -5.6%  0.7704E+08  0.1006E+08  0.3955E+06 -0.6123E+05  0.9181E-02   1.228      0.1117E-01
  133800  0.6690E-01  0.5000E-06 NODE      191627  -5.6%  0.7708E+08  0.1002E+08  0.3951E+06 -0.6125E+05  0.9182E-02   1.228      0.1117E-01
  133900  0.6695E-01  0.5000E-06 NODE    10868618  -5.6%  0.7711E+08  0.9983E+07  0.3936E+06 -0.6126E+05  0.9182E-02   1.228      0.1117E-01
  134000  0.6700E-01  0.5000E-06 NODE    10437642  -5.6%  0.7715E+08  0.9945E+07  0.3927E+06 -0.6128E+05  0.9183E-02   1.228      0.1117E-01
  134100  0.6705E-01  0.5000E-06 NODE    10868618  -5.6%  0.7719E+08  0.9906E+07  0.3922E+06 -0.6131E+05  0.9183E-02   1.228      0.1117E-01
  134200  0.6710E-01  0.5000E-06 NODE      342065  -5.6%  0.7723E+08  0.9866E+07  0.3892E+06 -0.6132E+05  0.9183E-02   1.228      0.1117E-01
  134300  0.6715E-01  0.5000E-06 NODE    10437642  -5.6%  0.7726E+08  0.9828E+07  0.3872E+06 -0.6134E+05  0.9184E-02   1.228      0.1117E-01
  134400  0.6720E-01  0.5000E-06 NODE    10040247  -5.6%  0.7730E+08  0.9791E+07  0.3874E+06 -0.6136E+05  0.9185E-02   1.228      0.1117E-01
  134500  0.6725E-01  0.5000E-06 NODE    10437642  -5.6%  0.7734E+08  0.9754E+07  0.3857E+06 -0.6137E+05  0.9185E-02   1.228      0.1117E-01
 **WARNING MINIMUM TIME STEP   0.4794E-06 IN INTERFACE         17(DTMIN=  0.5000E-06)
   DELETE SECONDARY NODE      60772 FROM INTERFACE         17
   MAIN NODES :      39366  10438383  10438600  10438577
  134600  0.6730E-01  0.5000E-06 NODE    10040247  -5.6%  0.7737E+08  0.9715E+07  0.3884E+06 -0.6139E+05  0.9185E-02   1.228      0.1117E-01
  134700  0.6735E-01  0.5000E-06 NODE    10684215  -5.7%  0.7740E+08  0.9680E+07  0.3908E+06 -0.6141E+05  0.9186E-02   1.228      0.1118E-01
  134800  0.6740E-01  0.5000E-06 NODE    10684215  -5.7%  0.7744E+08  0.9643E+07  0.3897E+06 -0.6143E+05  0.9187E-02   1.228      0.1118E-01
  134900  0.6745E-01  0.5000E-06 NODE      219080  -5.7%  0.7748E+08  0.9604E+07  0.3873E+06 -0.6145E+05  0.9187E-02   1.228      0.1118E-01
  135000  0.6750E-01  0.5000E-06 NODE      219080  -5.7%  0.7751E+08  0.9569E+07  0.3857E+06 -0.6147E+05  0.9188E-02   1.228      0.1118E-01
  135100  0.6755E-01  0.5000E-06 NODE    10959874  -5.7%  0.7755E+08  0.9532E+07  0.3851E+06 -0.6148E+05  0.9188E-02   1.228      0.1118E-01
  135200  0.6760E-01  0.5000E-06 NODE    10878290  -5.7%  0.7758E+08  0.9495E+07  0.3848E+06 -0.6151E+05  0.9188E-02   1.228      0.1118E-01
  135300  0.6765E-01  0.5000E-06 NODE    10818321  -5.7%  0.7761E+08  0.9460E+07  0.3852E+06 -0.6152E+05  0.9189E-02   1.228      0.1118E-01
  135400  0.6770E-01  0.5000E-06 NODE    11210041  -5.7%  0.7765E+08  0.9423E+07  0.3842E+06 -0.6154E+05  0.9189E-02   1.228      0.1118E-01
  135500  0.6775E-01  0.5000E-06 NODE    11210041  -5.7%  0.7769E+08  0.9384E+07  0.3842E+06 -0.6155E+05  0.9190E-02   1.228      0.1118E-01
  135600  0.6780E-01  0.5000E-06 NODE      219080  -5.7%  0.7772E+08  0.9347E+07  0.3838E+06 -0.6157E+05  0.9190E-02   1.228      0.1118E-01
  135700  0.6785E-01  0.5000E-06 NODE      219080  -5.7%  0.7776E+08  0.9312E+07  0.3838E+06 -0.6158E+05  0.9190E-02   1.228      0.1118E-01
  135800  0.6790E-01  0.5000E-06 NODE    10523243  -5.7%  0.7779E+08  0.9276E+07  0.3829E+06 -0.6159E+05  0.9191E-02   1.228      0.1118E-01
  135900  0.6795E-01  0.5000E-06 NODE    10728986  -5.7%  0.7783E+08  0.9239E+07  0.3835E+06 -0.6162E+05  0.9191E-02   1.228      0.1118E-01
  136000  0.6800E-01  0.5000E-06 NODE      219080  -5.7%  0.7786E+08  0.9203E+07  0.3844E+06 -0.6163E+05  0.9191E-02   1.228      0.1118E-01
  136100  0.6805E-01  0.5000E-06 NODE    10471128  -5.7%  0.7789E+08  0.9170E+07  0.3858E+06 -0.6164E+05  0.9192E-02   1.228      0.1118E-01
  136200  0.6810E-01  0.5000E-06 NODE    10782338  -5.7%  0.7792E+08  0.9134E+07  0.3844E+06 -0.6167E+05  0.9192E-02   1.228      0.1118E-01
  136300  0.6815E-01  0.5000E-06 NODE      132973  -5.7%  0.7795E+08  0.9101E+07  0.3837E+06 -0.6169E+05  0.9192E-02   1.228      0.1118E-01
  136400  0.6820E-01  0.5000E-06 NODE      132973  -5.7%  0.7799E+08  0.9067E+07  0.3831E+06 -0.6171E+05  0.9193E-02   1.228      0.1118E-01
  136500  0.6825E-01  0.5000E-06 NODE      219080  -5.7%  0.7802E+08  0.9031E+07  0.3815E+06 -0.6172E+05  0.9193E-02   1.228      0.1118E-01
  136600  0.6830E-01  0.5000E-06 NODE      219080  -5.7%  0.7806E+08  0.8998E+07  0.3820E+06 -0.6176E+05  0.9194E-02   1.228      0.1118E-01
  136700  0.6835E-01  0.5000E-06 NODE    10029179  -5.7%  0.7809E+08  0.8965E+07  0.3818E+06 -0.6178E+05  0.9194E-02   1.228      0.1119E-01
  136800  0.6840E-01  0.5000E-06 NODE    11209466  -5.7%  0.7812E+08  0.8932E+07  0.3821E+06 -0.6180E+05  0.9195E-02   1.228      0.1119E-01
  136900  0.6845E-01  0.5000E-06 NODE      132973  -5.7%  0.7815E+08  0.8899E+07  0.3814E+06 -0.6183E+05  0.9195E-02   1.228      0.1119E-01
  137000  0.6850E-01  0.5000E-06 NODE    10254738  -5.7%  0.7818E+08  0.8864E+07  0.3802E+06 -0.6184E+05  0.9195E-02   1.228      0.1119E-01
  137100  0.6855E-01  0.5000E-06 NODE    10819878  -5.7%  0.7822E+08  0.8831E+07  0.3791E+06 -0.6185E+05  0.9196E-02   1.228      0.1119E-01
  137200  0.6860E-01  0.5000E-06 NODE      132973  -5.7%  0.7824E+08  0.8798E+07  0.3807E+06 -0.6187E+05  0.9196E-02   1.228      0.1119E-01
  137300  0.6865E-01  0.5000E-06 NODE    11045625  -5.7%  0.7828E+08  0.8764E+07  0.3814E+06 -0.6188E+05  0.9196E-02   1.228      0.1119E-01
  137400  0.6870E-01  0.5000E-06 NODE      132973  -5.7%  0.7831E+08  0.8731E+07  0.3791E+06 -0.6189E+05  0.9197E-02   1.228      0.1119E-01
   CYCLE    TIME      TIME-STEP  ELEMENT          ERROR  I-ENERGY    K-ENERGY T  K-ENERGY R  EXT-WORK     MAS.ERR     TOTAL MASS  MASS ADDED
  137500  0.6875E-01  0.5000E-06 NODE    10818641  -5.7%  0.7834E+08  0.8696E+07  0.3779E+06 -0.6191E+05  0.9197E-02   1.228      0.1119E-01
  137600  0.6880E-01  0.5000E-06 NODE      418157  -5.7%  0.7838E+08  0.8660E+07  0.3763E+06 -0.6193E+05  0.9197E-02   1.228      0.1119E-01
  137700  0.6885E-01  0.5000E-06 NODE      132973  -5.7%  0.7841E+08  0.8626E+07  0.3759E+06 -0.6195E+05  0.9198E-02   1.228      0.1119E-01
  137800  0.6890E-01  0.5000E-06 NODE      132973  -5.7%  0.7844E+08  0.8593E+07  0.3767E+06 -0.6197E+05  0.9198E-02   1.228      0.1119E-01
  137900  0.6895E-01  0.5000E-06 NODE      219073  -5.7%  0.7847E+08  0.8560E+07  0.3761E+06 -0.6198E+05  0.9198E-02   1.228      0.1119E-01
  138000  0.6900E-01  0.5000E-06 NODE      239397  -5.7%  0.7850E+08  0.8527E+07  0.3753E+06 -0.6200E+05  0.9199E-02   1.228      0.1119E-01
  138100  0.6905E-01  0.5000E-06 NODE    10794925  -5.7%  0.7853E+08  0.8494E+07  0.3769E+06 -0.6201E+05  0.9199E-02   1.228      0.1119E-01
  138200  0.6910E-01  0.5000E-06 NODE    10741550  -5.7%  0.7856E+08  0.8463E+07  0.3783E+06 -0.6206E+05  0.9200E-02   1.228      0.1119E-01
  138300  0.6915E-01  0.5000E-06 NODE      148162  -5.7%  0.7859E+08  0.8429E+07  0.3779E+06 -0.6207E+05  0.9200E-02   1.228      0.1119E-01
  138400  0.6920E-01  0.5000E-06 NODE    10081077  -5.7%  0.7863E+08  0.8396E+07  0.3776E+06 -0.6209E+05  0.9201E-02   1.228      0.1119E-01
 **WARNING MINIMUM TIME STEP   0.4364E-06 IN INTERFACE         17(DTMIN=  0.5000E-06)
   DELETE SECONDARY NODE     122512 FROM INTERFACE         17
   MAIN NODES :     123317  10708833  10709160  10709157
  138500  0.6925E-01  0.5000E-06 NODE      219073  -5.7%  0.7866E+08  0.8365E+07  0.3758E+06 -0.6211E+05  0.9201E-02   1.228      0.1119E-01
  138600  0.6930E-01  0.5000E-06 NODE      219073  -5.7%  0.7869E+08  0.8334E+07  0.3739E+06 -0.6212E+05  0.9202E-02   1.228      0.1119E-01
  138700  0.6935E-01  0.5000E-06 NODE      191627  -5.7%  0.7872E+08  0.8300E+07  0.3725E+06 -0.6214E+05  0.9202E-02   1.228      0.1119E-01
  138800  0.6940E-01  0.5000E-06 NODE     9904494  -5.7%  0.7875E+08  0.8269E+07  0.3718E+06 -0.6215E+05  0.9202E-02   1.228      0.1120E-01
  138900  0.6945E-01  0.5000E-06 NODE    11045625  -5.7%  0.7878E+08  0.8236E+07  0.3701E+06 -0.6216E+05  0.9203E-02   1.228      0.1120E-01
  139000  0.6950E-01  0.5000E-06 NODE      191627  -5.7%  0.7882E+08  0.8204E+07  0.3700E+06 -0.6217E+05  0.9203E-02   1.228      0.1120E-01
  139100  0.6955E-01  0.5000E-06 NODE    11156610  -5.7%  0.7884E+08  0.8173E+07  0.3712E+06 -0.6218E+05  0.9203E-02   1.228      0.1120E-01
  139200  0.6960E-01  0.5000E-06 NODE      159750  -5.7%  0.7887E+08  0.8141E+07  0.3714E+06 -0.6220E+05  0.9204E-02   1.228      0.1120E-01
  139300  0.6965E-01  0.5000E-06 NODE    10818202  -5.7%  0.7890E+08  0.8110E+07  0.3711E+06 -0.6222E+05  0.9204E-02   1.228      0.1120E-01
  139400  0.6970E-01  0.5000E-06 NODE      149467  -5.7%  0.7893E+08  0.8080E+07  0.3701E+06 -0.6224E+05  0.9205E-02   1.228      0.1120E-01
  139500  0.6975E-01  0.5000E-06 NODE    10820270  -5.7%  0.7896E+08  0.8049E+07  0.3694E+06 -0.6226E+05  0.9205E-02   1.228      0.1120E-01
  139600  0.6980E-01  0.5000E-06 NODE    10820270  -5.8%  0.7899E+08  0.8019E+07  0.3704E+06 -0.6233E+05  0.9205E-02   1.228      0.1120E-01
  139700  0.6985E-01  0.5000E-06 NODE    10818205  -5.8%  0.7901E+08  0.7989E+07  0.3719E+06 -0.6234E+05  0.9206E-02   1.228      0.1120E-01
  139800  0.6990E-01  0.5000E-06 NODE    10820270  -5.8%  0.7904E+08  0.7957E+07  0.3730E+06 -0.6236E+05  0.9206E-02   1.228      0.1120E-01
  139900  0.6995E-01  0.5000E-06 NODE    10683865  -5.8%  0.7907E+08  0.7926E+07  0.3755E+06 -0.6239E+05  0.9207E-02   1.228      0.1120E-01
  140000  0.7000E-01  0.5000E-06 NODE    10878158  -5.8%  0.7910E+08  0.7895E+07  0.3746E+06 -0.6240E+05  0.9207E-02   1.228      0.1120E-01
     ANIMATION FILE: NEON1M11A015 WRITTEN
  140100  0.7005E-01  0.5000E-06 NODE    10878158  -5.8%  0.7913E+08  0.7864E+07  0.3739E+06 -0.6241E+05  0.9207E-02   1.228      0.1120E-01
  140200  0.7010E-01  0.5000E-06 NODE    11105805  -5.8%  0.7916E+08  0.7834E+07  0.3725E+06 -0.6243E+05  0.9208E-02   1.228      0.1120E-01
 **WARNING MINIMUM TIME STEP   0.4366E-06 IN INTERFACE         17(DTMIN=  0.5000E-06)
   DELETE SECONDARY NODE     121254 FROM INTERFACE         17
   MAIN NODES :     124311  10712463  10712790  10712787
  140300  0.7015E-01  0.5000E-06 NODE    10683869  -5.8%  0.7919E+08  0.7804E+07  0.3689E+06 -0.6244E+05  0.9208E-02   1.228      0.1120E-01
  140400  0.7020E-01  0.5000E-06 NODE    10808315  -5.8%  0.7922E+08  0.7775E+07  0.3670E+06 -0.6245E+05  0.9208E-02   1.228      0.1120E-01
  140500  0.7025E-01  0.5000E-06 NODE       79039  -5.8%  0.7925E+08  0.7746E+07  0.3682E+06 -0.6247E+05  0.9209E-02   1.228      0.1120E-01
  140600  0.7030E-01  0.5000E-06 NODE    10959889  -5.8%  0.7927E+08  0.7715E+07  0.3715E+06 -0.6249E+05  0.9209E-02   1.228      0.1120E-01
  140700  0.7035E-01  0.5000E-06 NODE    10485343  -5.8%  0.7930E+08  0.7684E+07  0.3723E+06 -0.6249E+05  0.9209E-02   1.228      0.1120E-01
  140800  0.7040E-01  0.5000E-06 NODE        7662  -5.8%  0.7933E+08  0.7654E+07  0.3722E+06 -0.6250E+05  0.9210E-02   1.228      0.1120E-01
  140900  0.7045E-01  0.5000E-06 NODE    10959889  -5.8%  0.7936E+08  0.7623E+07  0.3715E+06 -0.6251E+05  0.9210E-02   1.228      0.1120E-01
  141000  0.7050E-01  0.5000E-06 NODE    10959889  -5.8%  0.7939E+08  0.7595E+07  0.3710E+06 -0.6252E+05  0.9210E-02   1.228      0.1120E-01
  141100  0.7055E-01  0.5000E-06 NODE    10878158  -5.8%  0.7941E+08  0.7566E+07  0.3705E+06 -0.6254E+05  0.9211E-02   1.228      0.1121E-01
  141200  0.7060E-01  0.5000E-06 NODE    10959889  -5.8%  0.7944E+08  0.7536E+07  0.3692E+06 -0.6258E+05  0.9211E-02   1.228      0.1121E-01
  141300  0.7065E-01  0.5000E-06 NODE    10959889  -5.8%  0.7947E+08  0.7506E+07  0.3682E+06 -0.6261E+05  0.9211E-02   1.228      0.1121E-01
  141400  0.7070E-01  0.5000E-06 NODE        7662  -5.8%  0.7950E+08  0.7477E+07  0.3681E+06 -0.6262E+05  0.9211E-02   1.228      0.1121E-01
  141500  0.7075E-01  0.5000E-06 NODE    10808925  -5.8%  0.7953E+08  0.7448E+07  0.3673E+06 -0.6264E+05  0.9212E-02   1.228      0.1121E-01
  141600  0.7080E-01  0.5000E-06 NODE    10683869  -5.8%  0.7955E+08  0.7420E+07  0.3682E+06 -0.6265E+05  0.9213E-02   1.228      0.1121E-01
  141700  0.7085E-01  0.5000E-06 NODE    11203054  -5.8%  0.7958E+08  0.7392E+07  0.3676E+06 -0.6267E+05  0.9213E-02   1.228      0.1121E-01
  141800  0.7090E-01  0.5000E-06 NODE    10347704  -5.8%  0.7961E+08  0.7362E+07  0.3648E+06 -0.6269E+05  0.9213E-02   1.228      0.1121E-01
  141900  0.7095E-01  0.5000E-06 NODE      353696  -5.8%  0.7964E+08  0.7333E+07  0.3629E+06 -0.6271E+05  0.9214E-02   1.228      0.1121E-01
  142000  0.7100E-01  0.5000E-06 NODE    10818641  -5.8%  0.7967E+08  0.7304E+07  0.3627E+06 -0.6273E+05  0.9214E-02   1.228      0.1121E-01
  142100  0.7105E-01  0.5000E-06 NODE    10818641  -5.8%  0.7969E+08  0.7274E+07  0.3640E+06 -0.6274E+05  0.9215E-02   1.228      0.1121E-01
  142200  0.7110E-01  0.5000E-06 NODE    10794925  -5.8%  0.7972E+08  0.7246E+07  0.3644E+06 -0.6275E+05  0.9215E-02   1.228      0.1121E-01
  142300  0.7115E-01  0.5000E-06 NODE    10102881  -5.8%  0.7975E+08  0.7217E+07  0.3639E+06 -0.6277E+05  0.9215E-02   1.228      0.1121E-01
  142400  0.7120E-01  0.5000E-06 NODE    10102881  -5.8%  0.7977E+08  0.7188E+07  0.3641E+06 -0.6279E+05  0.9215E-02   1.228      0.1121E-01
  142500  0.7125E-01  0.5000E-06 NODE    10818208  -5.8%  0.7980E+08  0.7161E+07  0.3636E+06 -0.6280E+05  0.9215E-02   1.228      0.1121E-01
  142600  0.7130E-01  0.5000E-06 NODE    10102881  -5.8%  0.7982E+08  0.7133E+07  0.3652E+06 -0.6281E+05  0.9216E-02   1.228      0.1121E-01
  142700  0.7135E-01  0.5000E-06 NODE    10092913  -5.8%  0.7985E+08  0.7105E+07  0.3650E+06 -0.6283E+05  0.9216E-02   1.228      0.1121E-01
  142800  0.7140E-01  0.5000E-06 NODE       25208  -5.8%  0.7988E+08  0.7077E+07  0.3644E+06 -0.6285E+05  0.9216E-02   1.228      0.1121E-01
  142900  0.7145E-01  0.5000E-06 NODE    10811290  -5.8%  0.7991E+08  0.7049E+07  0.3625E+06 -0.6286E+05  0.9216E-02   1.228      0.1121E-01
   CYCLE    TIME      TIME-STEP  ELEMENT          ERROR  I-ENERGY    K-ENERGY T  K-ENERGY R  EXT-WORK     MAS.ERR     TOTAL MASS  MASS ADDED
  143000  0.7150E-01  0.5000E-06 NODE    10072607  -5.8%  0.7993E+08  0.7022E+07  0.3606E+06 -0.6288E+05  0.9216E-02   1.228      0.1121E-01
  143100  0.7155E-01  0.5000E-06 NODE      353696  -5.8%  0.7996E+08  0.6994E+07  0.3597E+06 -0.6289E+05  0.9217E-02   1.228      0.1121E-01
  143200  0.7160E-01  0.5000E-06 NODE    10245087  -5.8%  0.7999E+08  0.6967E+07  0.3600E+06 -0.6290E+05  0.9217E-02   1.228      0.1121E-01
  143300  0.7165E-01  0.5000E-06 NODE    11028683  -5.8%  0.8001E+08  0.6940E+07  0.3608E+06 -0.6291E+05  0.9217E-02   1.228      0.1121E-01
  143400  0.7170E-01  0.5000E-06 NODE      408249  -5.8%  0.8004E+08  0.6912E+07  0.3609E+06 -0.6292E+05  0.9218E-02   1.228      0.1121E-01
  143500  0.7175E-01  0.5000E-06 NODE        5736  -5.8%  0.8006E+08  0.6885E+07  0.3608E+06 -0.6293E+05  0.9218E-02   1.228      0.1121E-01
  143600  0.7180E-01  0.5000E-06 NODE    10880423  -5.8%  0.8009E+08  0.6857E+07  0.3612E+06 -0.6295E+05  0.9218E-02   1.228      0.1121E-01
 **WARNING MINIMUM TIME STEP   0.4973E-06 IN INTERFACE         15(DTMIN=  0.5000E-06)
   DELETE SECONDARY NODE   11026176 FROM INTERFACE         15
   MAIN NODES :     245081  11041133  11041130  11041132
  143700  0.7185E-01  0.5000E-06 NODE    10023585  -5.8%  0.8011E+08  0.6831E+07  0.3601E+06 -0.6297E+05  0.9219E-02   1.228      0.1122E-01
  143800  0.7190E-01  0.5000E-06 NODE    10818208  -5.8%  0.8014E+08  0.6804E+07  0.3584E+06 -0.6299E+05  0.9219E-02   1.228      0.1122E-01
  143900  0.7195E-01  0.5000E-06 NODE    10738652  -5.8%  0.8017E+08  0.6779E+07  0.3580E+06 -0.6300E+05  0.9219E-02   1.228      0.1122E-01
  144000  0.7200E-01  0.5000E-06 NODE    10684535  -5.8%  0.8019E+08  0.6754E+07  0.3586E+06 -0.6301E+05  0.9220E-02   1.228      0.1122E-01
  144100  0.7205E-01  0.5000E-06 NODE    10020443  -5.8%  0.8021E+08  0.6728E+07  0.3581E+06 -0.6303E+05  0.9220E-02   1.228      0.1122E-01
  144200  0.7210E-01  0.5000E-06 NODE    10437643  -5.8%  0.8024E+08  0.6702E+07  0.3585E+06 -0.6305E+05  0.9220E-02   1.228      0.1122E-01
  144300  0.7215E-01  0.5000E-06 NODE    10868407  -5.8%  0.8026E+08  0.6675E+07  0.3580E+06 -0.6306E+05  0.9221E-02   1.228      0.1122E-01
  144400  0.7220E-01  0.5000E-06 NODE    10904435  -5.8%  0.8029E+08  0.6650E+07  0.3596E+06 -0.6307E+05  0.9221E-02   1.228      0.1122E-01
  144500  0.7225E-01  0.5000E-06 NODE      310566  -5.8%  0.8031E+08  0.6623E+07  0.3612E+06 -0.6308E+05  0.9221E-02   1.228      0.1122E-01
  144600  0.7230E-01  0.5000E-06 NODE    11189560  -5.8%  0.8033E+08  0.6597E+07  0.3611E+06 -0.6309E+05  0.9222E-02   1.228      0.1122E-01
  144700  0.7235E-01  0.5000E-06 NODE    10437643  -5.8%  0.8036E+08  0.6571E+07  0.3592E+06 -0.6310E+05  0.9222E-02   1.228      0.1122E-01
  144800  0.7240E-01  0.5000E-06 NODE      189198  -5.8%  0.8039E+08  0.6545E+07  0.3596E+06 -0.6311E+05  0.9222E-02   1.228      0.1122E-01
  144900  0.7245E-01  0.5000E-06 NODE    10437643  -5.8%  0.8041E+08  0.6519E+07  0.3610E+06 -0.6313E+05  0.9223E-02   1.228      0.1122E-01
  145000  0.7250E-01  0.5000E-06 NODE    10818208  -5.8%  0.8043E+08  0.6494E+07  0.3614E+06 -0.6314E+05  0.9223E-02   1.228      0.1122E-01
  145100  0.7255E-01  0.5000E-06 NODE      149559  -5.9%  0.8045E+08  0.6469E+07  0.3618E+06 -0.6316E+05  0.9223E-02   1.228      0.1122E-01
  145200  0.7260E-01  0.5000E-06 NODE      381126  -5.9%  0.8048E+08  0.6444E+07  0.3616E+06 -0.6317E+05  0.9223E-02   1.228      0.1122E-01
  145300  0.7265E-01  0.5000E-06 NODE    10022077  -5.9%  0.8051E+08  0.6418E+07  0.3600E+06 -0.6319E+05  0.9224E-02   1.228      0.1122E-01
  145400  0.7270E-01  0.5000E-06 NODE    10022077  -5.9%  0.8053E+08  0.6393E+07  0.3593E+06 -0.6320E+05  0.9224E-02   1.228      0.1122E-01
  145500  0.7275E-01  0.5000E-06 NODE    10818625  -5.9%  0.8055E+08  0.6367E+07  0.3591E+06 -0.6321E+05  0.9225E-02   1.228      0.1122E-01
  145600  0.7280E-01  0.5000E-06 NODE     9999370  -5.9%  0.8058E+08  0.6341E+07  0.3577E+06 -0.6321E+05  0.9225E-02   1.228      0.1122E-01
  145700  0.7285E-01  0.5000E-06 NODE      341978  -5.9%  0.8060E+08  0.6315E+07  0.3581E+06 -0.6323E+05  0.9226E-02   1.228      0.1122E-01
  145800  0.7290E-01  0.5000E-06 NODE    10818208  -5.9%  0.8063E+08  0.6289E+07  0.3579E+06 -0.6325E+05  0.9226E-02   1.228      0.1122E-01
  145900  0.7295E-01  0.5000E-06 NODE      390066  -5.9%  0.8065E+08  0.6263E+07  0.3562E+06 -0.6325E+05  0.9226E-02   1.228      0.1122E-01
  146000  0.7300E-01  0.5000E-06 NODE    10684218  -5.9%  0.8068E+08  0.6240E+07  0.3549E+06 -0.6327E+05  0.9227E-02   1.228      0.1122E-01
  146100  0.7305E-01  0.5000E-06 NODE    10022077  -5.9%  0.8070E+08  0.6215E+07  0.3535E+06 -0.6329E+05  0.9227E-02   1.228      0.1123E-01
  146200  0.7310E-01  0.5000E-06 NODE    10022077  -5.9%  0.8072E+08  0.6190E+07  0.3563E+06 -0.6330E+05  0.9227E-02   1.228      0.1123E-01
  146300  0.7315E-01  0.5000E-06 NODE    10022077  -5.9%  0.8074E+08  0.6164E+07  0.3585E+06 -0.6330E+05  0.9228E-02   1.228      0.1123E-01
  146400  0.7320E-01  0.5000E-06 NODE      149459  -5.9%  0.8077E+08  0.6140E+07  0.3575E+06 -0.6331E+05  0.9228E-02   1.228      0.1123E-01
  146500  0.7325E-01  0.5000E-06 NODE    10819780  -5.9%  0.8079E+08  0.6116E+07  0.3553E+06 -0.6332E+05  0.9228E-02   1.228      0.1123E-01
  146600  0.7330E-01  0.5000E-06 NODE    10257470  -5.9%  0.8082E+08  0.6092E+07  0.3544E+06 -0.6333E+05  0.9228E-02   1.228      0.1123E-01
  146700  0.7335E-01  0.5000E-06 NODE    10820188  -5.9%  0.8084E+08  0.6067E+07  0.3533E+06 -0.6336E+05  0.9229E-02   1.228      0.1123E-01
  146800  0.7340E-01  0.5000E-06 NODE    10818208  -5.9%  0.8087E+08  0.6043E+07  0.3524E+06 -0.6337E+05  0.9229E-02   1.228      0.1123E-01
  146900  0.7345E-01  0.5000E-06 NODE    10784374  -5.9%  0.8089E+08  0.6019E+07  0.3520E+06 -0.6339E+05  0.9229E-02   1.228      0.1123E-01
  147000  0.7350E-01  0.5000E-06 NODE    10810002  -5.9%  0.8091E+08  0.5993E+07  0.3526E+06 -0.6343E+05  0.9230E-02   1.228      0.1123E-01
  147100  0.7355E-01  0.5000E-06 NODE      375328  -5.9%  0.8094E+08  0.5969E+07  0.3528E+06 -0.6344E+05  0.9230E-02   1.228      0.1123E-01
  147200  0.7360E-01  0.5000E-06 NODE    10687945  -5.9%  0.8096E+08  0.5945E+07  0.3541E+06 -0.6346E+05  0.9230E-02   1.228      0.1123E-01
  147300  0.7365E-01  0.5000E-06 NODE      185040  -5.9%  0.8098E+08  0.5920E+07  0.3557E+06 -0.6346E+05  0.9231E-02   1.228      0.1123E-01
  147400  0.7370E-01  0.5000E-06 NODE    10218414  -5.9%  0.8100E+08  0.5897E+07  0.3561E+06 -0.6347E+05  0.9231E-02   1.228      0.1123E-01
  147500  0.7375E-01  0.5000E-06 NODE    10482902  -5.9%  0.8102E+08  0.5874E+07  0.3549E+06 -0.6350E+05  0.9231E-02   1.228      0.1123E-01
  147600  0.7380E-01  0.5000E-06 NODE    10782338  -5.9%  0.8105E+08  0.5850E+07  0.3529E+06 -0.6351E+05  0.9231E-02   1.228      0.1123E-01
  147700  0.7385E-01  0.5000E-06 NODE      159489  -5.9%  0.8107E+08  0.5826E+07  0.3507E+06 -0.6353E+05  0.9231E-02   1.228      0.1123E-01
  147800  0.7390E-01  0.5000E-06 NODE    10022077  -5.9%  0.8109E+08  0.5804E+07  0.3500E+06 -0.6353E+05  0.9232E-02   1.228      0.1123E-01
  147900  0.7395E-01  0.5000E-06 NODE    10810002  -5.9%  0.8112E+08  0.5780E+07  0.3501E+06 -0.6354E+05  0.9232E-02   1.228      0.1123E-01
  148000  0.7400E-01  0.5000E-06 NODE      270691  -5.9%  0.8114E+08  0.5757E+07  0.3505E+06 -0.6355E+05  0.9232E-02   1.228      0.1123E-01
  148100  0.7405E-01  0.5000E-06 NODE    10784218  -5.9%  0.8116E+08  0.5734E+07  0.3516E+06 -0.6357E+05  0.9233E-02   1.228      0.1123E-01
  148200  0.7410E-01  0.5000E-06 NODE      159372  -5.9%  0.8118E+08  0.5710E+07  0.3517E+06 -0.6359E+05  0.9233E-02   1.228      0.1123E-01
  148300  0.7415E-01  0.5000E-06 NODE    10102891  -5.9%  0.8120E+08  0.5688E+07  0.3510E+06 -0.6360E+05  0.9233E-02   1.228      0.1123E-01
  148400  0.7420E-01  0.5000E-06 NODE    10102891  -5.9%  0.8122E+08  0.5664E+07  0.3501E+06 -0.6362E+05  0.9233E-02   1.228      0.1123E-01
   CYCLE    TIME      TIME-STEP  ELEMENT          ERROR  I-ENERGY    K-ENERGY T  K-ENERGY R  EXT-WORK     MAS.ERR     TOTAL MASS  MASS ADDED
  148500  0.7425E-01  0.5000E-06 NODE      149699  -5.9%  0.8125E+08  0.5640E+07  0.3497E+06 -0.6363E+05  0.9234E-02   1.228      0.1123E-01
 **WARNING MINIMUM TIME STEP   0.4950E-06 IN INTERFACE         16(DTMIN=  0.5000E-06)
   DELETE SECONDARY NODE      39252 FROM INTERFACE         16
   MAIN NODES :      39016  10437617  10437615  10437616
  148600  0.7430E-01  0.5000E-06 NODE    10482693  -5.9%  0.8127E+08  0.5618E+07  0.3487E+06 -0.6364E+05  0.9234E-02   1.228      0.1123E-01
  148700  0.7435E-01  0.5000E-06 NODE    10794928  -5.9%  0.8129E+08  0.5595E+07  0.3481E+06 -0.6368E+05  0.9235E-02   1.228      0.1123E-01
  148800  0.7440E-01  0.5000E-06 NODE    11216458  -5.9%  0.8131E+08  0.5571E+07  0.3490E+06 -0.6369E+05  0.9235E-02   1.228      0.1123E-01
  148900  0.7445E-01  0.5000E-06 NODE    10307077  -5.9%  0.8133E+08  0.5549E+07  0.3519E+06 -0.6371E+05  0.9235E-02   1.228      0.1124E-01
  149000  0.7450E-01  0.5000E-06 NODE    10687943  -5.9%  0.8135E+08  0.5529E+07  0.3535E+06 -0.6373E+05  0.9235E-02   1.228      0.1124E-01
  149100  0.7455E-01  0.5000E-06 NODE    10687943  -5.9%  0.8137E+08  0.5507E+07  0.3545E+06 -0.6374E+05  0.9236E-02   1.228      0.1124E-01
  149200  0.7460E-01  0.5000E-06 NODE      159489  -5.9%  0.8139E+08  0.5486E+07  0.3534E+06 -0.6374E+05  0.9236E-02   1.228      0.1124E-01
  149300  0.7465E-01  0.5000E-06 NODE    11216458  -5.9%  0.8141E+08  0.5465E+07  0.3526E+06 -0.6375E+05  0.9236E-02   1.228      0.1124E-01
  149400  0.7470E-01  0.5000E-06 NODE      159744  -5.9%  0.8143E+08  0.5443E+07  0.3532E+06 -0.6377E+05  0.9237E-02   1.228      0.1124E-01
  149500  0.7475E-01  0.5000E-06 NODE    10784374  -5.9%  0.8145E+08  0.5423E+07  0.3539E+06 -0.6378E+05  0.9237E-02   1.228      0.1124E-01
  149600  0.7480E-01  0.5000E-06 NODE    10818213  -5.9%  0.8147E+08  0.5401E+07  0.3544E+06 -0.6379E+05  0.9237E-02   1.228      0.1124E-01
  149700  0.7485E-01  0.5000E-06 NODE    10784374  -5.9%  0.8149E+08  0.5380E+07  0.3539E+06 -0.6380E+05  0.9238E-02   1.228      0.1124E-01
  149800  0.7490E-01  0.5000E-06 NODE    10819922  -5.9%  0.8151E+08  0.5359E+07  0.3533E+06 -0.6384E+05  0.9238E-02   1.228      0.1124E-01
  149900  0.7495E-01  0.5000E-06 NODE    11108415  -5.9%  0.8153E+08  0.5337E+07  0.3524E+06 -0.6386E+05  0.9238E-02   1.228      0.1124E-01

     RESTART FILES: NEON1M11_0001_[0001-0001].rst WRITTEN
     -------------

  150000  0.7500E-01  0.5000E-06 NODE      270691  -5.9%  0.8155E+08  0.5315E+07  0.3528E+06 -0.6387E+05  0.9238E-02   1.228      0.1124E-01
     ANIMATION FILE: NEON1M11A016 WRITTEN
  150100  0.7505E-01  0.5000E-06 NODE    10687943  -5.9%  0.8157E+08  0.5293E+07  0.3510E+06 -0.6388E+05  0.9238E-02   1.228      0.1124E-01
  150200  0.7510E-01  0.5000E-06 NODE    10253370  -5.9%  0.8159E+08  0.5271E+07  0.3493E+06 -0.6390E+05  0.9239E-02   1.228      0.1124E-01
  150300  0.7515E-01  0.5000E-06 NODE    10648972  -5.9%  0.8161E+08  0.5251E+07  0.3499E+06 -0.6392E+05  0.9239E-02   1.228      0.1124E-01
  150400  0.7520E-01  0.5000E-06 NODE    10078155  -5.9%  0.8163E+08  0.5231E+07  0.3517E+06 -0.6395E+05  0.9239E-02   1.228      0.1124E-01
  150500  0.7525E-01  0.5000E-06 NODE    10482693  -5.9%  0.8165E+08  0.5209E+07  0.3539E+06 -0.6397E+05  0.9239E-02   1.228      0.1124E-01
  150600  0.7530E-01  0.5000E-06 NODE    10819920  -5.9%  0.8166E+08  0.5188E+07  0.3556E+06 -0.6397E+05  0.9239E-02   1.228      0.1124E-01
  150700  0.7535E-01  0.5000E-06 NODE      375329  -5.9%  0.8168E+08  0.5167E+07  0.3558E+06 -0.6400E+05  0.9240E-02   1.228      0.1124E-01
  150800  0.7540E-01  0.5000E-06 NODE    10326093  -5.9%  0.8170E+08  0.5146E+07  0.3559E+06 -0.6402E+05  0.9240E-02   1.228      0.1124E-01
  150900  0.7545E-01  0.5000E-06 NODE    11106152  -5.9%  0.8172E+08  0.5125E+07  0.3552E+06 -0.6404E+05  0.9241E-02   1.228      0.1124E-01
  151000  0.7550E-01  0.5000E-06 NODE      375329  -5.9%  0.8174E+08  0.5107E+07  0.3556E+06 -0.6406E+05  0.9241E-02   1.228      0.1124E-01
  151100  0.7555E-01  0.5000E-06 NODE      159475  -5.9%  0.8176E+08  0.5088E+07  0.3552E+06 -0.6408E+05  0.9241E-02   1.228      0.1124E-01
  151200  0.7560E-01  0.5000E-06 NODE      341919  -5.9%  0.8178E+08  0.5067E+07  0.3531E+06 -0.6408E+05  0.9241E-02   1.228      0.1124E-01
  151300  0.7565E-01  0.5000E-06 NODE    10022507  -5.9%  0.8180E+08  0.5047E+07  0.3516E+06 -0.6409E+05  0.9241E-02   1.228      0.1124E-01
  151400  0.7570E-01  0.5000E-06 NODE    10648975  -5.9%  0.8182E+08  0.5027E+07  0.3520E+06 -0.6411E+05  0.9242E-02   1.228      0.1124E-01
  151500  0.7575E-01  0.5000E-06 NODE    10478103  -5.9%  0.8184E+08  0.5008E+07  0.3517E+06 -0.6414E+05  0.9242E-02   1.228      0.1124E-01
  151600  0.7580E-01  0.5000E-06 NODE    10102892  -5.9%  0.8185E+08  0.4989E+07  0.3520E+06 -0.6417E+05  0.9242E-02   1.228      0.1124E-01
  151700  0.7585E-01  0.5000E-06 NODE      270691  -5.9%  0.8187E+08  0.4969E+07  0.3522E+06 -0.6419E+05  0.9242E-02   1.228      0.1124E-01
  151800  0.7590E-01  0.5000E-06 NODE       34766  -5.9%  0.8189E+08  0.4948E+07  0.3519E+06 -0.6421E+05  0.9243E-02   1.228      0.1124E-01
  151900  0.7595E-01  0.5000E-06 NODE       34766  -6.0%  0.8191E+08  0.4930E+07  0.3525E+06 -0.6422E+05  0.9243E-02   1.228      0.1124E-01
  152000  0.7600E-01  0.5000E-06 NODE    10648967  -6.0%  0.8193E+08  0.4911E+07  0.3527E+06 -0.6425E+05  0.9243E-02   1.228      0.1125E-01
  152100  0.7605E-01  0.5000E-06 NODE    10815710  -6.0%  0.8194E+08  0.4890E+07  0.3528E+06 -0.6428E+05  0.9244E-02   1.228      0.1125E-01
  152200  0.7610E-01  0.5000E-06 NODE      375329  -6.0%  0.8196E+08  0.4870E+07  0.3524E+06 -0.6429E+05  0.9244E-02   1.228      0.1125E-01
  152300  0.7615E-01  0.5000E-06 NODE    10815673  -6.0%  0.8198E+08  0.4851E+07  0.3534E+06 -0.6431E+05  0.9244E-02   1.228      0.1125E-01
  152400  0.7620E-01  0.5000E-06 NODE    11052738  -6.0%  0.8200E+08  0.4831E+07  0.3531E+06 -0.6432E+05  0.9244E-02   1.228      0.1125E-01
  152500  0.7625E-01  0.5000E-06 NODE    10687947  -6.0%  0.8202E+08  0.4812E+07  0.3534E+06 -0.6433E+05  0.9244E-02   1.228      0.1125E-01
  152600  0.7630E-01  0.5000E-06 NODE    10687947  -6.0%  0.8204E+08  0.4791E+07  0.3544E+06 -0.6435E+05  0.9244E-02   1.228      0.1125E-01
  152700  0.7635E-01  0.5000E-06 NODE      149560  -6.0%  0.8205E+08  0.4772E+07  0.3550E+06 -0.6436E+05  0.9245E-02   1.228      0.1125E-01
  152800  0.7640E-01  0.5000E-06 NODE    10102896  -6.0%  0.8207E+08  0.4753E+07  0.3545E+06 -0.6439E+05  0.9245E-02   1.228      0.1125E-01
 **WARNING MINIMUM TIME STEP   0.4616E-06 IN INTERFACE         15(DTMIN=  0.5000E-06)
   DELETE SECONDARY NODE      53115 FROM INTERFACE         15
   MAIN NODES :     128818  10729137  11209074  10728351
  152900  0.7645E-01  0.5000E-06 NODE    11045513  -6.0%  0.8209E+08  0.4735E+07  0.3530E+06 -0.6441E+05  0.9245E-02   1.228      0.1125E-01
  153000  0.7650E-01  0.5000E-06 NODE    10687947  -6.0%  0.8211E+08  0.4717E+07  0.3542E+06 -0.6443E+05  0.9245E-02   1.228      0.1125E-01
  153100  0.7655E-01  0.5000E-06 NODE    10102896  -6.0%  0.8212E+08  0.4699E+07  0.3549E+06 -0.6444E+05  0.9246E-02   1.228      0.1125E-01
  153200  0.7660E-01  0.5000E-06 NODE    10815100  -6.0%  0.8214E+08  0.4681E+07  0.3543E+06 -0.6445E+05  0.9246E-02   1.228      0.1125E-01
  153300  0.7665E-01  0.5000E-06 NODE    10687947  -6.0%  0.8216E+08  0.4663E+07  0.3548E+06 -0.6447E+05  0.9246E-02   1.228      0.1125E-01
  153400  0.7670E-01  0.5000E-06 NODE      270816  -6.0%  0.8217E+08  0.4646E+07  0.3558E+06 -0.6448E+05  0.9246E-02   1.228      0.1125E-01
  153500  0.7675E-01  0.5000E-06 NODE    10102896  -6.0%  0.8219E+08  0.4627E+07  0.3561E+06 -0.6449E+05  0.9246E-02   1.228      0.1125E-01
  153600  0.7680E-01  0.5000E-06 NODE    10687947  -6.0%  0.8221E+08  0.4607E+07  0.3553E+06 -0.6451E+05  0.9247E-02   1.228      0.1125E-01
  153700  0.7685E-01  0.5000E-06 NODE    10687947  -6.0%  0.8222E+08  0.4589E+07  0.3568E+06 -0.6452E+05  0.9247E-02   1.228      0.1125E-01
  153800  0.7690E-01  0.5000E-06 NODE    11047143  -6.0%  0.8224E+08  0.4572E+07  0.3572E+06 -0.6455E+05  0.9247E-02   1.228      0.1125E-01
  153900  0.7695E-01  0.5000E-06 NODE    10102896  -6.0%  0.8226E+08  0.4554E+07  0.3556E+06 -0.6456E+05  0.9247E-02   1.228      0.1125E-01
   CYCLE    TIME      TIME-STEP  ELEMENT          ERROR  I-ENERGY    K-ENERGY T  K-ENERGY R  EXT-WORK     MAS.ERR     TOTAL MASS  MASS ADDED
  154000  0.7700E-01  0.5000E-06 NODE    10579902  -6.0%  0.8228E+08  0.4536E+07  0.3539E+06 -0.6457E+05  0.9247E-02   1.228      0.1125E-01
  154100  0.7705E-01  0.5000E-06 NODE    11047143  -6.0%  0.8229E+08  0.4519E+07  0.3555E+06 -0.6460E+05  0.9248E-02   1.228      0.1125E-01
  154200  0.7710E-01  0.5000E-06 NODE    11047143  -6.0%  0.8230E+08  0.4502E+07  0.3572E+06 -0.6460E+05  0.9248E-02   1.228      0.1125E-01
  154300  0.7715E-01  0.5000E-06 NODE    10687947  -6.0%  0.8232E+08  0.4485E+07  0.3563E+06 -0.6463E+05  0.9248E-02   1.228      0.1125E-01
  154400  0.7720E-01  0.5000E-06 NODE      408250  -6.0%  0.8234E+08  0.4468E+07  0.3558E+06 -0.6463E+05  0.9248E-02   1.228      0.1125E-01
  154500  0.7725E-01  0.5000E-06 NODE    10902082  -6.0%  0.8235E+08  0.4452E+07  0.3556E+06 -0.6465E+05  0.9248E-02   1.228      0.1125E-01
  154600  0.7730E-01  0.5000E-06 NODE    11047143  -6.0%  0.8237E+08  0.4435E+07  0.3561E+06 -0.6467E+05  0.9249E-02   1.228      0.1125E-01
  154700  0.7735E-01  0.5000E-06 NODE       13235  -6.0%  0.8239E+08  0.4417E+07  0.3555E+06 -0.6469E+05  0.9249E-02   1.228      0.1125E-01
  154800  0.7740E-01  0.5000E-06 NODE    10983525  -6.0%  0.8240E+08  0.4400E+07  0.3561E+06 -0.6472E+05  0.9249E-02   1.228      0.1125E-01
  154900  0.7745E-01  0.5000E-06 NODE      375330  -6.0%  0.8242E+08  0.4383E+07  0.3557E+06 -0.6474E+05  0.9250E-02   1.228      0.1125E-01
  155000  0.7750E-01  0.5000E-06 NODE    11030522  -6.0%  0.8243E+08  0.4365E+07  0.3558E+06 -0.6477E+05  0.9250E-02   1.228      0.1125E-01
  155100  0.7755E-01  0.5000E-06 NODE    11047143  -6.0%  0.8245E+08  0.4349E+07  0.3568E+06 -0.6479E+05  0.9251E-02   1.228      0.1125E-01
  155200  0.7760E-01  0.5000E-06 NODE      375330  -6.0%  0.8246E+08  0.4333E+07  0.3560E+06 -0.6480E+05  0.9251E-02   1.228      0.1125E-01
  155300  0.7765E-01  0.5000E-06 NODE       13235  -6.0%  0.8248E+08  0.4316E+07  0.3550E+06 -0.6482E+05  0.9251E-02   1.228      0.1126E-01
  155400  0.7770E-01  0.5000E-06 NODE    10818642  -6.0%  0.8250E+08  0.4300E+07  0.3562E+06 -0.6483E+05  0.9252E-02   1.228      0.1126E-01
  155500  0.7775E-01  0.5000E-06 NODE      153800  -6.0%  0.8251E+08  0.4285E+07  0.3559E+06 -0.6484E+05  0.9252E-02   1.228      0.1126E-01
  155600  0.7780E-01  0.5000E-06 NODE    11047143  -6.0%  0.8253E+08  0.4268E+07  0.3549E+06 -0.6485E+05  0.9252E-02   1.228      0.1126E-01
  155700  0.7785E-01  0.5000E-06 NODE    11047143  -6.0%  0.8254E+08  0.4251E+07  0.3550E+06 -0.6486E+05  0.9252E-02   1.228      0.1126E-01
  155800  0.7790E-01  0.5000E-06 NODE    10815122  -6.0%  0.8256E+08  0.4236E+07  0.3545E+06 -0.6487E+05  0.9252E-02   1.228      0.1126E-01
  155900  0.7795E-01  0.5000E-06 NODE    10747733  -6.0%  0.8257E+08  0.4220E+07  0.3559E+06 -0.6489E+05  0.9253E-02   1.228      0.1126E-01
  156000  0.7800E-01  0.5000E-06 NODE    10684555  -6.0%  0.8258E+08  0.4203E+07  0.3572E+06 -0.6490E+05  0.9253E-02   1.228      0.1126E-01
  156100  0.7805E-01  0.5000E-06 NODE    10741555  -6.0%  0.8260E+08  0.4188E+07  0.3586E+06 -0.6491E+05  0.9253E-02   1.228      0.1126E-01
  156200  0.7810E-01  0.5000E-06 NODE    10343001  -6.0%  0.8261E+08  0.4172E+07  0.3605E+06 -0.6495E+05  0.9253E-02   1.228      0.1126E-01
  156300  0.7815E-01  0.5000E-06 NODE      158569  -6.0%  0.8262E+08  0.4156E+07  0.3610E+06 -0.6495E+05  0.9253E-02   1.228      0.1126E-01
  156400  0.7820E-01  0.5000E-06 NODE    11047143  -6.0%  0.8264E+08  0.4143E+07  0.3590E+06 -0.6497E+05  0.9254E-02   1.228      0.1126E-01
  156500  0.7825E-01  0.5000E-06 NODE    11047143  -6.0%  0.8265E+08  0.4129E+07  0.3583E+06 -0.6499E+05  0.9254E-02   1.228      0.1126E-01
  156600  0.7830E-01  0.5000E-06 NODE     9904335  -6.0%  0.8266E+08  0.4113E+07  0.3596E+06 -0.6502E+05  0.9254E-02   1.228      0.1126E-01
  156700  0.7835E-01  0.5000E-06 NODE    11047143  -6.0%  0.8268E+08  0.4098E+07  0.3601E+06 -0.6504E+05  0.9254E-02   1.228      0.1126E-01
  156800  0.7840E-01  0.5000E-06 NODE    11119112  -6.0%  0.8269E+08  0.4084E+07  0.3603E+06 -0.6505E+05  0.9254E-02   1.228      0.1126E-01
  156900  0.7845E-01  0.5000E-06 NODE    10102901  -6.0%  0.8270E+08  0.4069E+07  0.3610E+06 -0.6507E+05  0.9254E-02   1.228      0.1126E-01
  157000  0.7850E-01  0.5000E-06 NODE    10815100  -6.0%  0.8272E+08  0.4055E+07  0.3607E+06 -0.6509E+05  0.9255E-02   1.228      0.1126E-01
  157100  0.7855E-01  0.5000E-06 NODE    10684559  -6.0%  0.8273E+08  0.4042E+07  0.3616E+06 -0.6511E+05  0.9255E-02   1.228      0.1126E-01
  157200  0.7860E-01  0.5000E-06 NODE    10478410  -6.0%  0.8274E+08  0.4027E+07  0.3615E+06 -0.6513E+05  0.9255E-02   1.228      0.1126E-01
  157300  0.7865E-01  0.5000E-06 NODE    10478103  -6.0%  0.8275E+08  0.4014E+07  0.3607E+06 -0.6513E+05  0.9255E-02   1.228      0.1126E-01
  157400  0.7870E-01  0.5000E-06 NODE    10784968  -6.0%  0.8276E+08  0.4002E+07  0.3613E+06 -0.6514E+05  0.9255E-02   1.228      0.1126E-01
 **WARNING MINIMUM TIME STEP   0.4911E-06 IN INTERFACE         20(DTMIN=  0.5000E-06)
   DELETE SECONDARY NODE     383304 FROM INTERFACE         20
   MAIN NODES :     371446  10093168  10093165  10093167
  157500  0.7875E-01  0.5000E-06 NODE    10684522  -6.0%  0.8277E+08  0.3989E+07  0.3633E+06 -0.6516E+05  0.9256E-02   1.228      0.1126E-01
  157600  0.7880E-01  0.5000E-06 NODE    10481367  -6.0%  0.8279E+08  0.3974E+07  0.3646E+06 -0.6518E+05  0.9256E-02   1.228      0.1126E-01
  157700  0.7885E-01  0.5000E-06 NODE    10391963  -6.0%  0.8280E+08  0.3961E+07  0.3641E+06 -0.6518E+05  0.9256E-02   1.228      0.1126E-01
  157800  0.7890E-01  0.5000E-06 NODE    11061831  -6.0%  0.8281E+08  0.3947E+07  0.3631E+06 -0.6520E+05  0.9256E-02   1.228      0.1126E-01
  157900  0.7895E-01  0.5000E-06 NODE      246795  -6.0%  0.8283E+08  0.3933E+07  0.3609E+06 -0.6521E+05  0.9257E-02   1.228      0.1126E-01
  158000  0.7900E-01  0.5000E-06 NODE    11064396  -6.0%  0.8284E+08  0.3921E+07  0.3592E+06 -0.6523E+05  0.9257E-02   1.228      0.1126E-01
  158100  0.7905E-01  0.5000E-06 NODE    10784481  -6.0%  0.8285E+08  0.3908E+07  0.3598E+06 -0.6524E+05  0.9257E-02   1.228      0.1126E-01
  158200  0.7910E-01  0.5000E-06 NODE    10784471  -6.0%  0.8286E+08  0.3898E+07  0.3606E+06 -0.6526E+05  0.9257E-02   1.228      0.1126E-01
  158300  0.7915E-01  0.5000E-06 NODE      254474  -6.0%  0.8288E+08  0.3888E+07  0.3645E+06 -0.6527E+05  0.9258E-02   1.228      0.1126E-01
  158400  0.7920E-01  0.4271E-06 INTER         13  -6.0%  0.8291E+08  0.3881E+07  0.3753E+06 -0.6528E+05  0.9259E-02   1.228      0.1126E-01
  158500  0.7924E-01  0.4144E-06 INTER         13  -5.9%  0.8294E+08  0.3873E+07  0.3786E+06 -0.6530E+05  0.9260E-02   1.228      0.1127E-01
  158600  0.7929E-01  0.5000E-06 NODE    10391963  -5.9%  0.8300E+08  0.3853E+07  0.3669E+06 -0.6531E+05  0.9261E-02   1.228      0.1127E-01
  158700  0.7934E-01  0.4040E-06 INTER         13  -5.9%  0.8300E+08  0.3854E+07  0.3771E+06 -0.6532E+05  0.9261E-02   1.228      0.1127E-01
  158800  0.7938E-01  0.4440E-06 INTER         13  -5.9%  0.8303E+08  0.3842E+07  0.3738E+06 -0.6533E+05  0.9261E-02   1.228      0.1127E-01
  158900  0.7943E-01  0.4637E-06 INTER         13  -5.9%  0.8306E+08  0.3831E+07  0.3713E+06 -0.6533E+05  0.9261E-02   1.228      0.1127E-01
  159000  0.7948E-01  0.5000E-06 NODE    10784887  -5.9%  0.8309E+08  0.3809E+07  0.3616E+06 -0.6535E+05  0.9261E-02   1.228      0.1127E-01
  159100  0.7953E-01  0.5000E-06 NODE    10784887  -5.9%  0.8310E+08  0.3795E+07  0.3625E+06 -0.6536E+05  0.9262E-02   1.228      0.1127E-01
  159200  0.7958E-01  0.5000E-06 NODE    10818215  -5.9%  0.8310E+08  0.3785E+07  0.3643E+06 -0.6538E+05  0.9262E-02   1.228      0.1127E-01
  159300  0.7963E-01  0.5000E-06 NODE    10022533  -5.9%  0.8311E+08  0.3771E+07  0.3662E+06 -0.6539E+05  0.9262E-02   1.228      0.1127E-01
  159400  0.7968E-01  0.5000E-06 NODE    10819190  -5.9%  0.8312E+08  0.3759E+07  0.3671E+06 -0.6540E+05  0.9262E-02   1.228      0.1127E-01
   CYCLE    TIME      TIME-STEP  ELEMENT          ERROR  I-ENERGY    K-ENERGY T  K-ENERGY R  EXT-WORK     MAS.ERR     TOTAL MASS  MASS ADDED
  159500  0.7973E-01  0.5000E-06 NODE    10344345  -5.9%  0.8313E+08  0.3745E+07  0.3655E+06 -0.6541E+05  0.9262E-02   1.228      0.1127E-01
  159600  0.7978E-01  0.5000E-06 NODE    10785312  -5.9%  0.8315E+08  0.3732E+07  0.3646E+06 -0.6543E+05  0.9263E-02   1.228      0.1127E-01
  159700  0.7983E-01  0.5000E-06 NODE    10815122  -5.9%  0.8316E+08  0.3721E+07  0.3656E+06 -0.6544E+05  0.9263E-02   1.228      0.1127E-01
  159800  0.7988E-01  0.5000E-06 NODE    10819190  -5.9%  0.8316E+08  0.3709E+07  0.3675E+06 -0.6546E+05  0.9263E-02   1.228      0.1127E-01
  159900  0.7993E-01  0.5000E-06 NODE    10684559  -5.9%  0.8318E+08  0.3696E+07  0.3680E+06 -0.6547E+05  0.9263E-02   1.228      0.1127E-01
  160000  0.7998E-01  0.5000E-06 NODE    10020437  -5.9%  0.8319E+08  0.3685E+07  0.3683E+06 -0.6550E+05  0.9263E-02   1.228      0.1127E-01

     RESTART FILES: NEON1M11_0001_[0001-0001].rst WRITTEN
     -------------

     ANIMATION FILE: NEON1M11A017 WRITTEN
  
                           ** CPU USER TIME **
  
  
                        ** SUMMARY **
  
 #PROC  CONTSORT  CONTFOR   ELEMENT   KINCOND   INTEG     IO        T0        ASM       RESOL    
   1   .1207E+05 .4317E+04 .2124E+06 .4356E+04 .1069E+05 .2736E+03 .1186E+03 .1347E+05 .2616E+06
  
 
                   ** CUMULATIVE CPU TIME SUMMARY **
  
 CONTACT SORTING.............: .1207E+05     4.61 % 
 CONTACT FORCES..............: .4317E+04     1.65 % 
 ELEMENT FORCES..............: .2124E+06    81.18 % 
 KINEMATIC COND..............: .4356E+04     1.67 % 
 INTEGRATION.................: .1069E+05     4.09 % 
 ASSEMBLING..................: .1347E+05     5.15 % 
 OTHERS (including I/O)......: .4313E+04     1.65 % 
 TOTAL.......................: .2616E+06   100.00 % 
  
  
                           ** ELAPSED TIME **
  
  
                        ** SUMMARY **
  
 #PROC  CONTSORT  CONTFOR   ELEMENT   KINCOND   INTEG     IO        T0        ASM       RESOL    
   1   .3118E+04 .1122E+04 .5343E+05 .1181E+04 .2784E+04 .1133E+03 .3259E+02 .3458E+04 .6629E+05
  
                   ** MEMORY USAGE STATISTICS **
  
 TOTAL MEMORY USED .........................:     3141 MB
 MAXIMUM MEMORY PER PROCESSOR...............:     3141 MB
 MINIMUM MEMORY PER PROCESSOR...............:     3141 MB
 AVERAGE MEMORY PER PROCESSOR...............:     3141 MB
  
                   ** DISK USAGE STATISTICS **
  
 TOTAL DISK SPACE USED .....................:       2407 MB
 ANIMATION/H3D/TH/OUTP SIZE ................:       1113 MB
 RESTART FILE SIZE .........................:       1293 MB
  
                   ** COMPUTE TIME INFORMATION **
                        ** CURRENT ENGINE **
  
 EXECUTION STARTED .........................:      2024/07/10  05:22:28
 EXECUTION COMPLETED .......................:      2024/07/10  23:47:21
  
 ELAPSED TIME     =      66299.38 s
                         18:24:59



     NORMAL TERMINATION      



     TOTAL NUMBER OF CYCLES  :  160039

  
                   ** COMPUTE RUNTIME INFORMATION SUMMARY **
  
        STARTER RUNTIME =         70.78s (00:01:10)
 # 001   ENGINE RUNTIME =      66299.38s (18:24:59)
 ------------------------------ 
 STARTER+ENGINE RUNTIME =      66370.16s (18:26:10)
  
